 # Version information for this restart file 
 # current date 2020-12-23 14:58:45.293
 # current working dir /Users/bvanbeek/Downloads/MM_MD_workdir/md
 # Program compiled at                             Fri Apr 19 11:24:34 CEST 2019
 # Program compiled on                                             192.168.1.124
 # Program compiled for                           Darwin-IntelMacintosh-gfortran
 # Source code revision number                                         svn:18464
 &GLOBAL
   PRINT_LEVEL  LOW
   PROJECT_NAME cp2k
   RUN_TYPE  MD
 &END GLOBAL
 &MOTION
   &MD
     ENSEMBLE  NPT_F
     STEPS  10000
     TIMESTEP     2.4999999999999996E+00
     STEP_START_VAL  1000
     TIME_START_VAL     2.5000000000000191E+03
     ECONS_START_VAL    -5.5495911227455137E+00
     TEMPERATURE     3.0000000000000000E+02
     &BAROSTAT
       PRESSURE     1.0100000000000000E+00
       TIMECON     4.9999999999999994E+02
       &VELOCITY
             7.9905556488314690E-07   -3.9732348207924751E-08    2.2397928372755804E-06   -3.9732348207920337E-08 \
             1.1213583602189727E-06   -1.0797544309147997E-06    2.2397928372755804E-06   -1.0797544309147997E-06   -1.0024471718859986E-06
       &END VELOCITY
       &MASS
             2.1920353963970435E+08    2.1920353963970435E+08    2.1920353963970435E+08    2.1920353963970435E+08 \
             2.1920353963970435E+08    2.1920353963970435E+08    2.1920353963970435E+08    2.1920353963970435E+08    2.1920353963970435E+08
       &END MASS
       &THERMOSTAT
         TYPE  CSVR
         &CSVR
           TIMECON     9.6755373060191392E+00
           &THERMOSTAT_ENERGY
                -2.1467846613617931E-03
           &END THERMOSTAT_ENERGY
           &RNG_INIT
Wiener process for Thermostat # 1        1 F T F  -2.6755093921943901E-01        4144235242.0        2585569407.0        2426648540.0        3371072432.0        1462612250.0        1694140367.0             12345.0             12345.0             12345.0             12345.0             12345.0             12345.0             12345.0             12345.0             12345.0             12345.0             12345.0             12345.0
           &END RNG_INIT
         &END CSVR
       &END THERMOSTAT
     &END BAROSTAT
     &THERMOSTAT
       TYPE  CSVR
       &CSVR
         TIMECON     4.9999999999999994E+02
         &THERMOSTAT_ENERGY
              -9.7045923610990625E-01
         &END THERMOSTAT_ENERGY
         &RNG_INIT
Wiener process for Thermostat # 1        1 F T F   6.6298374780985625E-01          36801267.0        3362756217.0        3529283587.0        2966202526.0        4166210190.0        3248648275.0             12345.0             12345.0             12345.0             12345.0             12345.0             12345.0             12345.0             12345.0             12345.0             12345.0             12345.0             12345.0
         &END RNG_INIT
       &END CSVR
       &PRINT
         &TEMPERATURE  ON
           FILENAME 
           &EACH
             MD  10
           &END EACH
         &END TEMPERATURE
       &END PRINT
     &END THERMOSTAT
     &AVERAGES  T
       &RESTART_AVERAGES
         ITIMES_START  1
         AVECPU     6.1759462000802144E-02
         AVEHUGONIOT     0.0000000000000000E+00
         AVETEMP_BARO     3.4102601884552894E+02
         AVEPOT    -5.5033454405586628E+00
         AVEKIN     5.6107509324479410E-01
         AVETEMP     2.1913826841866020E+02
         AVEKIN_QM     0.0000000000000000E+00
         AVETEMP_QM     0.0000000000000000E+00
         AVEVOL     2.2879599901677706E+05
         AVECELL_A     5.4827304580007251E+01
         AVECELL_B     7.7027666816085770E+01
         AVECELL_C     5.4125325375979166E+01
         AVEALPHA     9.0139818510224259E+01
         AVEBETA     8.9757994976565683E+01
         AVEGAMMA     8.9962068018896886E+01
         AVE_ECONS    -1.1875411433353593E+00
         AVE_PRESS     3.1988700184909855E+00
         AVE_PXX    -2.9403709494184662E+00
       &END RESTART_AVERAGES
     &END AVERAGES
   &END MD
   &PRINT
     &TRAJECTORY  ON
       &EACH
         MD  10
       &END EACH
     &END TRAJECTORY
     &CELL  ON
       FILENAME 
       &EACH
         MD  10
       &END EACH
     &END CELL
     &FORCES  ON
       FILENAME 
       &EACH
         MD  10
       &END EACH
     &END FORCES
   &END PRINT
 &END MOTION
 &FORCE_EVAL
   METHOD  FIST
   STRESS_TENSOR  ANALYTICAL
   &MM
     &FORCEFIELD
       VDW_SCALE14     1.0000000000000000E+00
       EI_SCALE14     1.0000000000000000E+00
       SHIFT_CUTOFF  T
       DO_NONBONDED  T
       IGNORE_MISSING_CRITICAL_PARAMS  T
       &SPLINE
         R0_NB     1.0000000000000001E-01
       &END SPLINE
       &NONBONDED
         &LENNARD-JONES
           ATOMS Cs Cs
           EPSILON     2.2644852172126850E+01
           SIGMA     5.8500000000000005E+00
         &END LENNARD-JONES
         &LENNARD-JONES
           ATOMS Cs Pb
           EPSILON     8.6920055954630953E+01
           SIGMA     5.1000000000000005E+00
         &END LENNARD-JONES
         &LENNARD-JONES
           ATOMS Br Pb
           EPSILON     2.0528187276773045E+02
           SIGMA     2.9000000000000004E+00
         &END LENNARD-JONES
         &LENNARD-JONES
           ATOMS Br Cs
           EPSILON     5.3481070753900497E+01
           SIGMA     3.8500000000000005E+00
         &END LENNARD-JONES
         &LENNARD-JONES
           ATOMS Br Br
           EPSILON     1.2630795322675199E+02
           SIGMA     4.2599999999999998E+00
         &END LENNARD-JONES
         &LENNARD-JONES
           ATOMS Pb Pb
           EPSILON     3.3363415533600221E+02
           SIGMA     5.9800000000000004E+00
         &END LENNARD-JONES
       &END NONBONDED
       &CHARGE
         ATOM Cs
         CHARGE     2.0000000000000001E-01
       &END CHARGE
       &CHARGE
         ATOM Pb
         CHARGE     4.0000000000000002E-01
       &END CHARGE
       &CHARGE
         ATOM Br
         CHARGE    -2.0000000000000001E-01
       &END CHARGE
     &END FORCEFIELD
     &POISSON
       PERIODIC  XYZ
       &EWALD
         EWALD_TYPE  SPME
         GMAX  22
         O_SPLINE  4
       &END EWALD
     &END POISSON
     &PRINT
       &FF_INFO  LOW
         SPLINE_INFO  F
         SPLINE_DATA  F
       &END FF_INFO
     &END PRINT
   &END MM
   &SUBSYS
     &CELL
       A     2.9854385446619165E+01    4.5638602360160252E-01    3.2560215569885337E-01
       B     6.8236920682974023E-01    4.1802665797005837E+01   -2.2177816660850505E-01
       C     2.5962189135158426E-01   -1.4480014179637959E-01    2.9137898984808082E+01
       PERIODIC  XYZ
       MULTIPLE_UNIT_CELL  1 1 1
     &END CELL
     &COORD
Br   -1.0213375562090489E+01    1.7516186784439842E+01   -5.9765643581008121E-01
Br   -9.9948854144356805E+00    1.7623571651790897E+01    9.5571039361865839E+00
Br   -4.9898195673133894E-01   -9.7227853663062778E+00   -8.8492628964205604E+00
Br    8.9623680579073128E-01   -9.8269516197682769E+00    4.2143774410690715E-01
Br    4.4912250226539795E-02   -9.5001282743226110E+00    1.1342234409291194E+01
Br    1.5279865379476376E+00    2.5317800086668529E+00   -9.0338911663061889E+00
Br    4.8972375551361224E-03    3.0519903168979874E+00    1.4584596887964060E-01
Br   -2.6730899772136030E-01    2.6561142189244276E+00    8.3755049263221792E+00
Br    9.7197240398951312E-01    1.7044484145343684E+01   -8.6309431632373173E+00
Br    1.3118505086534260E-02    1.7557932006069709E+01    3.9716410067023417E-01
Br   -7.0795941670853832E-02    1.7020905089942897E+01    9.9101889125823703E+00
Br    1.0193161184786804E+01   -1.0292116997555429E+01   -8.9577318279991012E+00
Br    1.0630571956285319E+01   -1.0678337046183582E+01   -1.5874015621427193E-01
Br    9.5706544645766094E+00   -9.7219207960184661E+00    1.0090852785260065E+01
Br    9.5532844471571465E+00    4.2444890866922123E+00   -8.7635111795129124E+00
Br    1.0882455098776106E+01    3.9520988878089436E+00    7.8731001190900096E-01
Br    1.0944507815336468E+01    3.4840619561607347E+00    1.0654862817595181E+01
Br    8.3888215978164933E+00    1.6765547513166513E+01   -1.0558025116872791E+01
Br    9.0739637438339944E+00    1.6769695211319775E+01    1.7098958579915538E-01
Br    1.1444628547546158E+01    1.8023908332746181E+01    9.8023143046371661E+00
Pb   -1.4092020899941708E+01   -1.3419199693775871E+01   -1.4829465498834534E+01
Pb   -1.4729650505069575E+01   -1.3377872996812762E+01   -6.3774106772071919E+00
Pb   -1.5482732388615350E+01   -1.3305845994702912E+01    4.9384426605847054E+00
Pb   -1.4382238920062823E+01    7.6639608659512537E-01   -1.4118826138378417E+01
Pb   -1.4755348930608482E+01    4.6275225564341821E-01   -4.7570008402267820E+00
Pb   -1.4572287061364403E+01    7.1398571337402716E-01    4.2605346356841762E+00
Pb   -1.5469668611445330E+01    1.3575500717900955E+01   -1.4642172077175458E+01
Pb   -1.4201154447656076E+01    1.4776070706022951E+01   -5.9551663291769659E+00
Pb   -1.4182389551825027E+01    1.4308918177832314E+01    4.0199767256071901E+00
Pb   -5.1292654747902793E+00   -1.4100189626020443E+01   -1.5018901581370306E+01
Pb   -4.8263741129097157E+00   -1.3713817838822784E+01   -4.6688979302703260E+00
Pb   -4.8598511871850487E+00   -1.3564473771352445E+01    5.8366100045121572E+00
Pb   -4.5245151100828629E+00    2.0647196150620784E-01   -1.3925813805430584E+01
Pb   -5.1284562201490500E+00   -8.7747139027641197E-02   -4.5018938770948420E+00
Pb   -5.0800753938158349E+00    4.3260805897502053E-01    5.5472613704205713E+00
Pb   -4.8735302643419898E+00    1.4252327480997637E+01   -1.5000736644569855E+01
Pb   -4.5006856670354853E+00    1.3576553068532444E+01   -4.3406495690867706E+00
Pb   -4.4020550963261185E+00    1.3693891509960658E+01    5.1019166259415343E+00
Pb    4.3708171292123286E+00   -1.4141283773630681E+01   -1.4520789563675720E+01
Pb    4.4679888339707468E+00   -1.5041644300648144E+01   -4.8782132418700206E+00
Pb    4.6528012758511581E+00   -1.3300775742916114E+01    4.5695681459229522E+00
Pb    4.0291163207961613E+00    1.4949131717795258E-01   -1.3852492531239120E+01
Pb    5.8855247621218725E+00   -9.6604457621701578E-01   -3.8515119909236577E+00
Pb    5.1057651113359723E+00    1.9118984002165351E-01    5.0940805085014187E+00
Pb    4.6005640741373259E+00    1.4552647877908862E+01   -1.4849893878051587E+01
Pb    4.6589354849033313E+00    1.3829186061706677E+01   -5.2982796339797682E+00
Pb    5.1342282741174659E+00    1.3953526456218409E+01    4.1957631598088891E+00
Pb   -9.2994529011773341E+00   -1.2701819324531961E+01   -9.8461140759729968E+00
Pb   -1.0622908993904655E+01   -1.3478967759471495E+01    1.1748337762666670E-02
Pb   -1.0670565187262378E+01   -1.4184371661661800E+01    9.1552502917056025E+00
Pb   -9.9182226649748522E+00    4.2091324931311308E-01   -8.9233200303687479E+00
Pb   -9.6328662264654366E+00    3.2731411895869544E-01    6.9330638079213053E-02
Pb   -9.8253111276714016E+00    5.7834400563697108E-01    9.7009124568070106E+00
Pb   -9.6254169957106317E+00    1.3393700877846113E+01   -1.0010999143640793E+01
Pb   -9.9345692238329271E+00    1.4391058413563888E+01   -8.3724464817833100E-01
Pb   -9.5755468082136854E+00    1.3905064075470321E+01    8.9435711247113439E+00
Pb   -5.0663312890169954E-01   -1.4332477821465188E+01   -1.0049119619465193E+01
Pb   -8.8209614997994057E-01   -1.4371269778449051E+01    3.1732603342366950E-01
Pb    7.0426564309082684E-01   -1.4041414252259148E+01    9.1696177477000198E+00
Pb    1.3032581933308865E-01   -5.1258651340943795E-01   -9.7025191850418153E+00
Pb    3.2320360231538853E-01   -9.7741154360809199E-02    5.0452628495575180E-01
Pb   -8.2210502876172953E-01   -2.3098116740129454E-01    9.9500861356337786E+00
Pb   -3.0321169199295894E-01    1.4061564981323217E+01   -1.0175558662475778E+01
Pb    4.9836249356444284E-01    1.2739772190653950E+01    3.4613950549965855E-01
Pb   -5.7816866122407856E-02    1.3621337059865738E+01    9.4011636617639471E+00
Pb    1.0317027435460115E+01   -1.3835319918468167E+01   -1.0816244627633335E+01
Pb    9.9932265448879836E+00   -1.4151600496086765E+01    1.8127993711545934E-01
Pb    1.0030206712556479E+01   -1.2716558218530796E+01    1.0318281336446971E+01
Pb    1.0415394669647158E+01    3.9586972858901071E-01   -9.4705798364157481E+00
Pb    1.0307086027813256E+01    6.9487776586308292E-01    2.5308394701728676E-01
Pb    1.0699211884937316E+01    2.9932953701443299E-01    9.4368232515445847E+00
Pb    9.5474084424821051E+00    1.3433965950913970E+01   -9.5148828928131781E+00
Pb    1.0378066927629323E+01    1.3334422547184653E+01   -1.9456787961109884E-01
Pb    1.0189964957388758E+01    1.3671457806082470E+01    8.3011109961125555E+00
Pb   -1.5003220371584035E+01   -2.0403839561181396E+01   -1.4767994028105628E+01
Pb   -1.6005411654655877E+01   -2.0734732695746683E+01   -4.3466724194893844E+00
Pb   -1.5795375778748747E+01   -2.0650692553103244E+01    4.0337088784500512E+00
Pb   -1.4879342610698565E+01   -5.3990490438462642E+00   -1.3395167631601552E+01
Pb   -1.4996450536696070E+01   -6.7162333830948588E+00   -4.4320083845973262E+00
Pb   -1.5249611879736793E+01   -6.1208873754252622E+00    4.2055759014810334E+00
Pb   -1.6016933816725210E+01    7.5212643557577561E+00   -1.4670043975987060E+01
Pb   -1.5266057075813611E+01    7.1100314482887033E+00   -5.4312594671767327E+00
Pb   -1.4631276384108023E+01    7.4704489613701854E+00    4.3846061280429725E+00
Pb   -5.4510506854349403E+00   -2.0626475626223662E+01   -1.5140799894489025E+01
Pb   -4.9632495767403402E+00   -2.1560546475341397E+01   -5.0303396920247057E+00
Pb   -4.9026261252283536E+00   -2.0257848855532785E+01    4.7204058628840810E+00
Pb   -5.1906245938147872E+00   -6.7469579591035655E+00   -1.4312067562735916E+01
Pb   -5.4169168661868792E+00   -6.8797659463296812E+00   -4.4981027154646442E+00
Pb   -4.9340239347557597E+00   -6.9468243344255347E+00    5.1093051698928464E+00
Pb   -4.2830677495083673E+00    7.5303252678977257E+00   -1.4566431467199516E+01
Pb   -4.7679076597005929E+00    6.6174339796638177E+00   -4.3184278271228385E+00
Pb   -5.5486149199132733E+00    7.9646925876424746E+00    4.6949617338862781E+00
Pb    4.7250891159341402E+00   -2.0870707835099676E+01   -1.4584334622120370E+01
Pb    4.7585044393138940E+00   -2.1446909410363833E+01   -4.4405846486134424E+00
Pb    5.0011550226299013E+00   -2.1408591967741540E+01    5.3592814242455908E+00
Pb    4.4519864448006814E+00   -6.2352330775013352E+00   -1.4698386672188391E+01
Pb    4.7252152221184014E+00   -6.6203968348687425E+00   -4.9362739463462297E+00
Pb    5.2661927490768958E+00   -7.0819854281405421E+00    4.7399022068782823E+00
Pb    5.1089192215053414E+00    6.8699536110212165E+00   -1.4352074602642462E+01
Pb    5.2550740665149149E+00    5.7231849554029228E+00   -4.2155554960494870E+00
Pb    5.1960689734363683E+00    7.1354136082557744E+00    5.3301042822988771E+00
Pb   -1.0843090637953503E+01   -2.2112902284155226E+01   -9.8286605846011312E+00
Pb   -1.0518574778007569E+01   -2.0241177773207390E+01   -1.6779437153076951E-01
Pb   -1.0854347712508558E+01   -2.0769115437267413E+01    9.5711864300039693E+00
Pb   -1.0095608781101344E+01   -5.5359463586888387E+00   -9.1283516235191353E+00
Pb   -1.0272490099692366E+01   -7.2604523124020304E+00   -7.3725875885557249E-02
Pb   -9.8384978998626984E+00   -5.7368512698433349E+00    9.3044977098576691E+00
Pb   -9.2303239812306384E+00    6.9206985402672823E+00   -9.5284894326625196E+00
Pb   -1.0023963076958994E+01    6.3620301730497184E+00   -4.0968372423110097E-03
Pb   -1.0550834162389704E+01    7.2859821422388835E+00    9.3408583078373439E+00
Pb   -5.6028139589419779E-01   -2.0925379964581992E+01   -9.8672732139580042E+00
Pb    6.0555964255059946E-01   -2.1373622162287823E+01    8.8888858960919104E-01
Pb   -5.3826884817213472E-01   -2.0980553495340395E+01    9.2759369111576735E+00
Pb    3.6618283572728860E-01   -6.7798781230471148E+00   -9.7253194994589904E+00
Pb    1.8223161216130290E-01   -7.1190673305946044E+00    6.7427501066935058E-01
Pb    6.9215772807341078E-02   -6.6197989541179787E+00    9.9302136318504406E+00
Pb    6.2199598732961422E-02    6.2894433295187193E+00   -8.6554299898645723E+00
Pb    2.1338321903912397E-01    6.8320419639032961E+00    5.9816160932924856E-01
Pb    3.3711234842136523E-01    6.9686503357415628E+00    9.6256113635996101E+00
Pb    8.6838398374833599E+00   -2.1087385851957244E+01   -9.6391119851516081E+00
Pb    8.9439458074618177E+00   -2.0665191320130550E+01   -1.7060480036721637E-01
Pb    1.0101762914350335E+01   -2.0817485265641437E+01    1.0053279479423484E+01
Pb    1.0323486052104453E+01   -7.0237203287565757E+00   -8.7961371321146231E+00
Pb    1.0193061859149271E+01   -7.2369764183653267E+00    4.8970110024324343E-01
Pb    1.0062803348544831E+01   -6.0187060919511417E+00    9.6396101940484478E+00
Pb    9.6168958058431802E+00    7.3100223670343070E+00   -9.5064352082155423E+00
Pb    1.0598621362420738E+01    7.4170014096306014E+00    1.1005434226141345E-01
Pb    9.7941595993443737E+00    7.1542635217430064E+00    1.0079008837977712E+01
Cs   -1.0770282887378665E+01   -1.8494966934061317E+01   -1.3660864772808226E+01
Cs   -9.5428772575527603E+00   -1.7483878192766195E+01   -5.0484808967034045E+00
Cs   -1.0146854044859197E+01   -1.8286035784871480E+01    5.3745027249397239E+00
Cs   -9.7394023068452551E+00   -2.2383632765996215E+00   -1.5059576465699049E+01
Cs   -1.0121151381209312E+01   -3.0776909037495872E+00   -3.8540096447431527E+00
Cs   -1.0636381695496411E+01   -3.8712303601628415E+00    3.7193265475002342E+00
Cs   -9.1148857804696650E+00    1.0103660502565809E+01   -1.4533671308257510E+01
Cs   -1.1462977059126324E+01    1.0883035797686663E+01   -3.8093392472449601E+00
Cs   -9.8654580379405399E+00    1.0559453977613328E+01    3.8154246139819601E+00
Cs    3.1428923773486334E-01   -1.7372714672168925E+01   -1.5594021298256347E+01
Cs   -7.1725199635786652E-01   -1.8081251808387545E+01   -5.1958570274566620E+00
Cs    1.3981797592261542E+00   -1.7811300142182432E+01    5.1383949233001864E+00
Cs    1.2211583379867391E-01   -3.8877879652705980E+00   -1.4101951741543035E+01
Cs   -1.1114468632858757E-01   -3.9262342701431256E+00   -4.1925239867835780E+00
Cs    1.2126014238088354E+00   -3.7819191329432407E+00    4.9272131204283554E+00
Cs   -1.0501318003425466E-02    1.1016529935473722E+01   -1.3947957942896442E+01
Cs   -3.4995603840992351E-01    1.0428939129412104E+01   -4.5425542998729069E+00
Cs    4.0010730867574412E-01    1.0453669993244064E+01    5.0027070791034491E+00
Cs    1.0737989884741273E+01   -1.6584588633051389E+01   -1.4914251322608569E+01
Cs    1.0373379068440814E+01   -1.6573286123763783E+01   -5.0459979337020595E+00
Cs    9.2794421329905656E+00   -1.6562964420783555E+01    4.9045000058050015E+00
Cs    1.0322881609579454E+01   -3.9400186019312446E+00   -1.3899610825103617E+01
Cs    1.0358797798122010E+01   -3.7280757326463112E+00   -4.7615343425352643E+00
Cs    1.0002823636413391E+01   -3.1691454441879361E+00    4.1914230572168121E+00
Cs    9.7083599832086485E+00    1.0834383516151419E+01   -1.5844968515108837E+01
Cs    9.9598345892769302E+00    1.0912472058448099E+01   -4.7264931735491151E+00
Cs    1.0301139589619774E+01    9.6505836630167057E+00    4.8358502180826797E+00
Cs   -4.6643966912603378E+00   -9.6249970191118237E+00   -9.9931824782686736E+00
Cs   -6.1585314670768723E+00   -1.0973243002854989E+01    3.6162698228703619E-02
Cs   -3.9557020791130828E+00   -1.0439635224902892E+01    9.7627811461177867E+00
Cs   -4.3910020806431689E+00    4.5344572260564986E+00   -9.6763029865914110E+00
Cs   -5.1616759526646074E+00    4.3492119367126678E+00    9.4409364305582677E-01
Cs   -5.3266004224966608E+00    5.5457587435237521E+00    1.0007995792459065E+01
Cs   -4.5825845011448285E+00    1.7592277492894834E+01   -1.0329437035295483E+01
Cs   -4.1120397951820271E+00    1.8440714258589203E+01    7.3426779189221747E-01
Cs   -5.4931073926602290E+00    1.6891763987023069E+01    8.8296780878703665E+00
Cs    5.0349044984614117E+00   -1.1705116661457790E+01   -8.2937699457769867E+00
Cs    5.1583163995570267E+00   -1.1368858852042615E+01    3.3885671603521211E-02
Cs    5.6280674338588081E+00   -9.9167117278379955E+00    1.0214694759450316E+01
Cs    5.2000872211741740E+00    3.6909610867314457E+00   -9.3181855171700967E+00
Cs    4.5351807389627234E+00    3.2395706665792048E+00    5.1095791983104455E-01
Cs    3.2647649105467114E+00    3.0051703728616399E+00    9.2951992849558849E+00
Cs    4.6099319732391946E+00    1.8184299913228458E+01   -8.9751955771701990E+00
Cs    4.1742508696091241E+00    1.6679329632641739E+01   -1.1629834659073892E+00
Cs    4.8922218876556887E+00    1.7633323237574118E+01    9.2652521376145263E+00
Cs    1.5941891237339632E+01   -8.8686117723528159E+00   -9.8361819943855249E+00
Cs    1.4367959204133941E+01   -1.0819352056498250E+01   -1.9878366692928687E-01
Cs    1.5916814017916092E+01   -9.5317488083602626E+00    1.0044807791342254E+01
Cs    1.4480749071262769E+01    4.4389598059887545E+00   -1.0429333808843651E+01
Cs    1.5408211672042858E+01    4.7231348821515260E+00   -1.4329823015368540E-01
Cs    1.4954613454770010E+01    4.7011099304003539E+00    1.0351628546214176E+01
Cs    1.4075537328098433E+01    1.7591255472713712E+01   -1.0450829888032057E+01
Cs    1.4404472688789721E+01    1.7351391405202623E+01    8.2444504253201475E-02
Cs    1.5721541371172371E+01    1.8328274840531172E+01    1.0160444077882731E+01
Cs   -1.0833974968998831E+01   -1.0471164159789380E+01   -4.4107301825633645E+00
Cs   -9.4336780946685828E+00   -9.5754321069081900E+00    5.7939167993213010E+00
Cs   -9.5044626692648269E+00   -1.0892456229271698E+01    1.3920677603180790E+01
Cs   -9.3897214285195432E+00    3.6649826684415650E+00   -4.8640416452326942E+00
Cs   -9.6461562956559561E+00    4.6064674171150966E+00    4.7612126241601631E+00
Cs   -1.0231813911367377E+01    4.4230666291995213E+00    1.5334543264840921E+01
Cs   -1.0196072332061858E+01    1.7689053579505781E+01   -4.7790034294563499E+00
Cs   -1.0062226194666849E+01    1.7195364752860627E+01    3.4713953886881352E+00
Cs   -9.9330429717538404E+00    1.7808522531370155E+01    1.3558611007329480E+01
Cs    6.7952754814043226E-02   -1.1157491173544683E+01   -4.7910357365112599E+00
Cs    2.3890509943514694E-02   -1.0256324462241905E+01    4.5495071693071036E+00
Cs    1.1307350990850046E-01   -1.1389239584417219E+01    1.4502601549634727E+01
Cs    8.3480097226084862E-02    3.3256491084475184E+00   -4.0731869706952244E+00
Cs    2.8252438788747741E-01    3.4908635187157140E+00    4.6788229342685375E+00
Cs    1.5092395138772247E-01    3.5454787606255667E+00    1.5381331147573480E+01
Cs   -1.2302783131230867E-01    1.5615833673077589E+01   -4.6396739829494908E+00
Cs   -2.0362586638248938E-02    1.7104748303846286E+01    4.3208453555933843E+00
Cs    2.7213963638344274E-01    1.6984027342655807E+01    1.4390873105826628E+01
Cs    9.9041079174303377E+00   -1.0188248482213600E+01   -4.4777677136336802E+00
Cs    9.4934814965970240E+00   -1.0085839226281983E+01    5.3874745884571453E+00
Cs    1.1366582239354781E+01   -1.0203899289991499E+01    1.3879000038629863E+01
Cs    1.0342757037671541E+01    3.7683262054290974E+00   -3.8713245010405553E+00
Cs    9.6352027065181414E+00    2.5810438805967344E+00    4.7171369245171917E+00
Cs    1.0215405873759531E+01    3.7827150362859432E+00    1.4799431432218439E+01
Cs    9.2545544168855507E+00    1.7051358720537216E+01   -4.8359246822604032E+00
Cs    9.9601270781927429E+00    1.6733622895877566E+01    4.5552937740280264E+00
Cs    1.0353606072536603E+01    1.6752725611983887E+01    1.4058997658317359E+01
Cs   -1.5503750769978810E+01   -1.8826690033748942E+01   -9.7143299358366129E+00
Cs   -1.4247479832092372E+01   -1.7252430576216273E+01   -3.9363621823943834E-01
Cs   -1.5568909330479954E+01   -1.7818839392572993E+01    8.8530147519977582E+00
Cs   -1.3965619163075321E+01   -2.0233201806455998E+00   -8.5826567735094361E+00
Cs   -1.5430462731035952E+01   -2.9833023942928008E+00   -3.2249538271065420E-01
Cs   -1.5002516988144857E+01   -3.4376722060767384E+00    9.1999114105187552E+00
Cs   -1.5013138871281214E+01    9.9133008150532245E+00   -9.9433023031001539E+00
Cs   -1.5063076842322225E+01    1.0527159531102106E+01   -8.3923103240133579E-02
Cs   -1.4447961253974709E+01    1.1796163363741401E+01    8.8061627662229558E+00
Cs   -4.8565660844657375E+00   -1.7162009790959559E+01   -9.3275162199039059E+00
Cs   -5.8639873739360624E+00   -1.7699671719661882E+01   -7.2708435616683997E-01
Cs   -4.6252879682567718E+00   -1.7509347520927655E+01    9.7527045742553469E+00
Cs   -4.2134139022603696E+00   -2.4826457805745408E+00   -8.8239496548811474E+00
Cs   -4.9987570329345434E+00   -4.0255323271283192E+00    7.1956872794413662E-01
Cs   -5.2229254177710907E+00   -2.6031232232895318E+00    1.0412974511013783E+01
Cs   -3.8191865738655246E+00    1.0172895471631692E+01   -8.4343781819406622E+00
Cs   -5.0055817099533302E+00    1.1161987823803120E+01    7.4262768266409607E-01
Cs   -4.7081090333813886E+00    1.0471739144579358E+01    1.0179910099088408E+01
Cs    3.6949667820378163E+00   -1.6966234132398554E+01   -8.9759281993099211E+00
Cs    4.3316499444454530E+00   -1.7130140711217994E+01   -6.0182197800531356E-01
Cs    5.4623790212656491E+00   -1.7148364125080356E+01    9.9079322009884621E+00
Cs    6.2073326157846704E+00   -3.0743702746531900E+00   -1.0514182122435161E+01
Cs    6.0814636883483608E+00   -3.4554254405204059E+00    5.5188595235620197E-01
Cs    5.7712095432224819E+00   -3.1221857426796564E+00    9.7316554464333560E+00
Cs    4.5949674882875984E+00    1.0113281523673164E+01   -9.1634676945659681E+00
Cs    6.1085721472564218E+00    1.0536188192417178E+01   -4.7193696903722099E-01
Cs    5.4187114697470147E+00    1.1667542816409087E+01    9.6993527785494589E+00
Br   -1.2075127745159305E+01   -1.1891553566739203E+01   -1.1812812809240191E+01
Br   -1.2911455165592562E+01   -1.2749564179711950E+01   -2.5697748229787112E+00
Br   -1.2716070390883290E+01   -1.2316405351368811E+01    6.8610783817874683E+00
Br   -1.2560928085035787E+01    1.1499212446807481E+00   -1.1127520086887396E+01
Br   -1.1711599540262077E+01    1.2652426283397389E+00   -2.3158418931102709E+00
Br   -1.4579285265790483E+01    1.3633279355151815E+00    7.3973209039038288E+00
Br   -1.3845655611773688E+01    1.4045694404548065E+01   -1.1806961977904129E+01
Br   -1.3844587892671177E+01    1.4744373667890441E+01   -2.4940203438354764E+00
Br   -1.2091259128257329E+01    1.4483249306320188E+01    6.8898990578560673E+00
Br   -2.4619167708813734E+00   -1.3527861245154149E+01   -1.3026773540698040E+01
Br   -1.9222815798512589E+00   -1.4401032006391473E+01   -3.2887285633847863E+00
Br   -1.7402515943435963E+00   -1.3929119003353463E+01    7.2370490326172403E+00
Br   -2.4957688730284140E+00    4.5095320375393311E-01   -1.1406585242686901E+01
Br   -1.7093618986726682E+00   -1.5953270586499438E-01   -2.4793564154806353E+00
Br   -3.0418165641700385E+00   -6.5354390232729498E-01    7.3486421580124395E+00
Br   -3.3331159224302436E+00    1.5384129492537939E+01   -1.2456083574306978E+01
Br   -1.9972796586910662E+00    1.3187102877982287E+01   -2.5579502924758768E+00
Br   -2.5476247698293748E+00    1.4474361818380240E+01    7.6872092722286247E+00
Br    6.8724854266974695E+00   -1.4028157790367347E+01   -1.1907980533597025E+01
Br    8.4272355312378000E+00   -1.4139841184696690E+01   -2.2343581226178557E+00
Br    7.3201276171097405E+00   -1.3496929470682437E+01    7.0880916026659806E+00
Br    6.7196509667180333E+00    7.6459256444000512E-01   -1.2559644058157089E+01
Br    8.8537221418547354E+00   -8.1423003791921700E-01   -3.2527711325609387E+00
Br    8.2427231915411809E+00    1.7847869758799073E+00    7.8245731082266614E+00
Br    7.3169683427599566E+00    1.2832576723866584E+01   -1.1173720703372501E+01
Br    6.6061243527595472E+00    1.2877257757511828E+01   -3.2462478155016083E+00
Br    6.8613918585596094E+00    1.4938363941997583E+01    7.4187214522591836E+00
Br   -1.2277826540996220E+01   -1.4103828493770637E+01   -8.4087835097374182E+00
Br   -1.3124445803970971E+01   -1.4089050584324715E+01    2.2013372132561546E+00
Br   -1.1096293252348209E+01   -1.3988052961690357E+01    1.2689634615686264E+01
Br   -1.2218788120838093E+01    1.1448950952200436E+00   -6.4178043589289624E+00
Br   -1.2656828416591951E+01    5.4789116526525883E-01    2.1959481961596352E+00
Br   -1.1944459884002759E+01    4.8497132184553221E-01    1.2894247116594450E+01
Br   -1.1696984475087756E+01    1.2867051184497047E+01   -7.4494767108047428E+00
Br   -1.0860402568395452E+01    1.4040016794281287E+01    2.1299199536435203E+00
Br   -1.1202508564368989E+01    1.4179851637604147E+01    1.1761439412338740E+01
Br   -3.5554437752658741E+00   -1.4346972035494220E+01   -7.7456158542983902E+00
Br   -3.4320326551517057E+00   -1.3504163680627716E+01    9.7363473807918599E-01
Br   -3.6257666390653126E-01   -1.4301881998787776E+01    1.1837522603408743E+01
Br   -1.2744377302173735E+00   -2.2208539744346736E-01   -6.8663511346404844E+00
Br   -2.4693563412918147E+00   -2.9618831011497831E-01    1.8384792918694826E+00
Br   -2.0147319536138490E+00    1.1681065847091543E+00    1.2507572345134623E+01
Br   -2.1273517682053367E+00    1.3537885342127352E+01   -7.3138142911482529E+00
Br   -2.0359402960516557E+00    1.2788849504217914E+01    2.5133101155443307E+00
Br   -1.7290813313590994E+00    1.3369498722610857E+01    1.2784101610443624E+01
Br    7.1551380909829101E+00   -1.5616425409724942E+01   -7.1620110519415894E+00
Br    7.1707378531777861E+00   -1.4065972274417804E+01    2.2550636000756543E+00
Br    7.7805183839250578E+00   -1.3826392113166239E+01    1.2115173828951495E+01
Br    7.3549562262286905E+00    2.5779110236780428E-01   -7.7419122909962903E+00
Br    8.0086855048475662E+00    2.1000838765360275E-01    1.9177905153774915E+00
Br    6.6087653214167208E+00   -5.5354419589956816E-01    1.1933680359476991E+01