 # Version information for this restart file 
 # current date 2020-12-23 14:59:40.473
 # current working dir /Users/bvanbeek/Downloads/MM_MD_workdir/md
 # Program compiled at                             Fri Apr 19 11:24:34 CEST 2019
 # Program compiled on                                             192.168.1.124
 # Program compiled for                           Darwin-IntelMacintosh-gfortran
 # Source code revision number                                         svn:18464
 &GLOBAL
   PRINT_LEVEL  LOW
   PROJECT_NAME cp2k
   RUN_TYPE  MD
 &END GLOBAL
 &MOTION
   &MD
     ENSEMBLE  NPT_F
     STEPS  10000
     TIMESTEP     2.4999999999999996E+00
     STEP_START_VAL  2500
     TIME_START_VAL     6.2499999999996226E+03
     ECONS_START_VAL    -5.5495911227455137E+00
     TEMPERATURE     3.0000000000000000E+02
     &BAROSTAT
       PRESSURE     1.0100000000000000E+00
       TIMECON     4.9999999999999994E+02
       &VELOCITY
            -2.0302360632097237E-07   -5.5240983567843548E-07   -1.7466451799134429E-06   -5.5240983567841864E-07 \
             5.4256514332548276E-07    1.2178893874341651E-07   -1.7466451799134382E-06    1.2178893874341161E-07    3.1269845821252767E-06
       &END VELOCITY
       &MASS
             2.1920353963970435E+08    2.1920353963970435E+08    2.1920353963970435E+08    2.1920353963970435E+08 \
             2.1920353963970435E+08    2.1920353963970435E+08    2.1920353963970435E+08    2.1920353963970435E+08    2.1920353963970435E+08
       &END MASS
       &THERMOSTAT
         TYPE  CSVR
         &CSVR
           TIMECON     9.6755373060191392E+00
           &THERMOSTAT_ENERGY
                -6.4252463546840130E-03
           &END THERMOSTAT_ENERGY
           &RNG_INIT
Wiener process for Thermostat # 1        1 F T F  -6.9492628000745418E-02         902754763.0        2140903731.0        1152146538.0        1219072021.0          83151521.0        2474526969.0             12345.0             12345.0             12345.0             12345.0             12345.0             12345.0             12345.0             12345.0             12345.0             12345.0             12345.0             12345.0
           &END RNG_INIT
         &END CSVR
       &END THERMOSTAT
     &END BAROSTAT
     &THERMOSTAT
       TYPE  CSVR
       &CSVR
         TIMECON     4.9999999999999994E+02
         &THERMOSTAT_ENERGY
              -1.4837793750594073E+00
         &END THERMOSTAT_ENERGY
         &RNG_INIT
Wiener process for Thermostat # 1        1 F T F   5.4690425633469908E-01        2936342019.0        2549452469.0        4096989704.0        1382129117.0        3655755380.0        4125395241.0             12345.0             12345.0             12345.0             12345.0             12345.0             12345.0             12345.0             12345.0             12345.0             12345.0             12345.0             12345.0
         &END RNG_INIT
       &END CSVR
       &PRINT
         &TEMPERATURE  ON
           FILENAME 
           &EACH
             MD  10
           &END EACH
         &END TEMPERATURE
       &END PRINT
     &END THERMOSTAT
     &AVERAGES  T
       &RESTART_AVERAGES
         ITIMES_START  1
         AVECPU     4.6776318400352943E-02
         AVEHUGONIOT     0.0000000000000000E+00
         AVETEMP_BARO     2.6983899106321962E+02
         AVEPOT    -5.2141322142513191E+00
         AVEKIN     6.4541273143286582E-01
         AVETEMP     2.5207789489213417E+02
         AVEKIN_QM     0.0000000000000000E+00
         AVETEMP_QM     0.0000000000000000E+00
         AVEVOL     2.5364886149009867E+05
         AVECELL_A     5.6468392957263525E+01
         AVECELL_B     8.0033774836531862E+01
         AVECELL_C     5.5978609337000840E+01
         AVEALPHA     9.0076270992156267E+01
         AVEBETA     8.9355832939774857E+01
         AVEGAMMA     8.8992311072286014E+01
         AVE_ECONS    -1.3201566944781526E+00
         AVE_PRESS     5.3074738492997779E+00
         AVE_PXX     2.6830918372599619E+00
       &END RESTART_AVERAGES
     &END AVERAGES
   &END MD
   &PRINT
     &TRAJECTORY  ON
       &EACH
         MD  10
       &END EACH
     &END TRAJECTORY
     &CELL  ON
       FILENAME 
       &EACH
         MD  10
       &END EACH
     &END CELL
     &FORCES  ON
       FILENAME 
       &EACH
         MD  10
       &END EACH
     &END FORCES
   &END PRINT
 &END MOTION
 &FORCE_EVAL
   METHOD  FIST
   STRESS_TENSOR  ANALYTICAL
   &MM
     &FORCEFIELD
       VDW_SCALE14     1.0000000000000000E+00
       EI_SCALE14     1.0000000000000000E+00
       SHIFT_CUTOFF  T
       DO_NONBONDED  T
       IGNORE_MISSING_CRITICAL_PARAMS  T
       &SPLINE
         R0_NB     1.0000000000000001E-01
       &END SPLINE
       &NONBONDED
         &LENNARD-JONES
           ATOMS Cs Cs
           EPSILON     2.2644852172126850E+01
           SIGMA     5.8500000000000005E+00
         &END LENNARD-JONES
         &LENNARD-JONES
           ATOMS Cs Pb
           EPSILON     8.6920055954630953E+01
           SIGMA     5.1000000000000005E+00
         &END LENNARD-JONES
         &LENNARD-JONES
           ATOMS Br Pb
           EPSILON     2.0528187276773045E+02
           SIGMA     2.9000000000000004E+00
         &END LENNARD-JONES
         &LENNARD-JONES
           ATOMS Br Cs
           EPSILON     5.3481070753900497E+01
           SIGMA     3.8500000000000005E+00
         &END LENNARD-JONES
         &LENNARD-JONES
           ATOMS Br Br
           EPSILON     1.2630795322675199E+02
           SIGMA     4.2599999999999998E+00
         &END LENNARD-JONES
         &LENNARD-JONES
           ATOMS Pb Pb
           EPSILON     3.3363415533600221E+02
           SIGMA     5.9800000000000004E+00
         &END LENNARD-JONES
       &END NONBONDED
       &CHARGE
         ATOM Cs
         CHARGE     2.0000000000000001E-01
       &END CHARGE
       &CHARGE
         ATOM Pb
         CHARGE     4.0000000000000002E-01
       &END CHARGE
       &CHARGE
         ATOM Br
         CHARGE    -2.0000000000000001E-01
       &END CHARGE
     &END FORCEFIELD
     &POISSON
       PERIODIC  XYZ
       &EWALD
         EWALD_TYPE  SPME
         GMAX  22
         O_SPLINE  4
       &END EWALD
     &END POISSON
     &PRINT
       &FF_INFO  LOW
         SPLINE_INFO  F
         SPLINE_DATA  F
       &END FF_INFO
     &END PRINT
   &END MM
   &SUBSYS
     &CELL
       A     3.1733704825362768E+01    8.9780091704028275E-01   -1.3353465798815295E-01
       B     1.1404315969183170E+00    4.4401697617456506E+01    5.3733519404745522E-01
       C    -2.0932216661733002E-01    4.3897025864414463E-01    3.2033942576995585E+01
       PERIODIC  XYZ
       MULTIPLE_UNIT_CELL  1 1 1
     &END CELL
     &COORD
Br   -7.5734077099451280E+00    1.6784622210451165E+01    8.8387674254384252E-01
Br   -1.1197051122174512E+01    1.6743921460630038E+01    1.2804152937363805E+01
Br    8.2340069471618094E-01   -1.0591052840126803E+01   -1.2216615672187428E+01
Br   -2.0433737990193745E+00   -8.2961351484554999E+00   -1.8512818854339508E+00
Br    2.3627594567625426E-01   -9.6971519250695124E+00    8.7768376032073157E+00
Br   -1.9194511241494852E+00    3.0648295484910038E+00   -1.1880307347512659E+01
Br   -2.2129038621784591E+00    4.4738438910076042E+00    2.1956443479059686E+00
Br    6.0928669817918746E-01    4.5624897853514117E+00    1.0901531902703512E+01
Br    4.2985555506967382E-01    1.7722062750070386E+01   -9.1810539899749397E+00
Br   -1.0245515419935085E+00    1.9695626538110371E+01    3.0863657101785074E+00
Br   -1.0878028403673401E+00    1.8820439399726922E+01    1.1132619862004107E+01
Br    1.1535982886969620E+01   -1.0015249831592735E+01   -1.0801965662631401E+01
Br    1.0559930724628494E+01   -8.3455293443136309E+00    8.0063558518336375E-01
Br    9.8830027353601526E+00   -1.3599166854901815E+01    1.0381138786805852E+01
Br    1.1829363201194223E+01    4.2118297824844744E+00   -9.1256706566028942E+00
Br    1.1230823606112034E+01    4.0495375983264834E+00   -2.6110999052603157E-01
Br    1.0404247690728779E+01    5.9065895527008676E+00    8.5529349407712214E+00
Br    1.0998325724571078E+01    1.9991186902384218E+01   -8.6380069933767434E+00
Br    1.1108254254261094E+01    1.7661292466374046E+01    2.4423146144782732E+00
Br    1.0031104555301129E+01    1.9024305010810668E+01    1.1774751439584092E+01
Pb   -1.7427862831141301E+01   -1.6120675622072479E+01   -1.6054960957860086E+01
Pb   -1.6197413494882888E+01   -1.5307357899003131E+01   -2.8435755901592099E+00
Pb   -1.6291816030252015E+01   -1.6256014423465135E+01    5.5909951382188625E+00
Pb   -1.4375926363531191E+01   -1.8928276280183931E+00   -1.5775793306433489E+01
Pb   -1.6323799991774610E+01   -1.1496815365622186E+00   -4.9635809484366185E+00
Pb   -1.4603349224029902E+01   -2.7183955867594323E+00    5.5854156822066017E+00
Pb   -1.6053657358262342E+01    1.3222246955932894E+01   -1.5142871730813397E+01
Pb   -1.5556142675024454E+01    1.4087915307102694E+01   -5.1535820088009610E+00
Pb   -1.5897299702142657E+01    1.2461433240359732E+01    6.4101726210865211E+00
Pb   -6.0089313357302432E+00   -1.5625433125344680E+01   -1.5713251943485032E+01
Pb   -5.3135276857189924E+00   -1.4964091943314667E+01   -6.8490410003777198E+00
Pb   -4.5558907617586719E+00   -1.5185006783100107E+01    5.6045934985045731E+00
Pb   -5.7288559132578802E+00   -8.9312958708924584E-01   -1.5000690320305578E+01
Pb   -5.1287853742108744E+00   -3.4961501117101813E-02   -5.0289106807993269E+00
Pb   -6.0164427649555341E+00    1.3120773711610734E+00    4.4782477309552426E+00
Pb   -4.9451071849124135E+00    1.4959641655322903E+01   -1.5822556208935481E+01
Pb   -4.7929781450155957E+00    1.6174532407650638E+01   -4.3238599116696887E+00
Pb   -5.2451172535061614E+00    1.4880019131636866E+01    7.5585898565370391E+00
Pb    5.2397299808011528E+00   -1.3791418306171877E+01   -1.7297465384507458E+01
Pb    3.9771665916528076E+00   -1.5509552957642518E+01   -8.4346909493693563E+00
Pb    6.0186197650146926E+00   -1.5546750430156825E+01    5.9244254212804037E+00
Pb    5.9655597638464775E+00    1.4953077699798225E+00   -1.3914733043262823E+01
Pb    5.4957866500322980E+00    1.5227015028381281E+00   -5.2378117072705077E+00
Pb    4.2469907890562215E+00    1.9689158669977247E+00    4.9095888736895787E+00
Pb    4.8084337669702650E+00    1.4823041756881361E+01   -1.7015632198837533E+01
Pb    5.2834729167701662E+00    1.4428888164077904E+01   -5.3697947287277046E+00
Pb    4.2135586327262349E+00    1.4078493670457705E+01    6.0621550561315614E+00
Pb   -1.0388653869643605E+01   -1.5467946037965408E+01   -1.0115733550293879E+01
Pb   -1.0596734236623726E+01   -1.4936724310696043E+01    3.5186807569449247E-01
Pb   -9.7555699787062711E+00   -1.5055221025953930E+01    1.0296919446027234E+01
Pb   -1.0606000370766578E+01   -9.2431409978948176E-01   -9.0091574126020948E+00
Pb   -1.0607539742547580E+01   -7.3589226263602969E-01   -1.2733721857389129E+00
Pb   -1.0359070153682897E+01    6.3067798119786656E-01    1.0963220946426551E+01
Pb   -9.3323468325178194E+00    1.6262021814379711E+01   -1.1048306557479703E+01
Pb   -9.8192823400412692E+00    1.4144079864480847E+01   -1.5387551378467712E-01
Pb   -1.0422480484629041E+01    1.3784599444080568E+01    1.2035489143908077E+01
Pb    2.8447153305712147E-01   -1.5738573302500379E+01   -1.3810195696865762E+01
Pb    5.3238162158386015E-01   -1.5107937327178494E+01    1.1729267082517212E+00
Pb    9.7859166344409021E-01   -1.2959683783893633E+01    8.6197837660211238E+00
Pb   -2.0508474941041030E-01   -4.4327562619574923E-01   -1.0772666362332680E+01
Pb   -6.8798742911816979E-01    3.2512890947195343E+00   -8.0215551464015744E-01
Pb   -5.5181572864896022E-01    1.4707003341889098E+00    9.9854572048403565E+00
Pb    1.1127593528746993E-01    1.5416794078878038E+01   -1.0936568297287199E+01
Pb    4.0927055285309205E-01    1.5358403559300578E+01    4.4166411976534606E-02
Pb    1.6320754787749642E-01    1.3564670836806901E+01    1.0564022801039453E+01
Pb    1.0899832681780435E+01   -1.3442821033709210E+01   -1.0793100416919353E+01
Pb    1.0029240137336220E+01   -1.5869232278071332E+01    6.9729999243981233E-01
Pb    9.6525888255358563E+00   -1.6535209230284465E+01    1.1499305473934722E+01
Pb    1.0491025277476226E+01    3.4179537100110202E-01   -9.5432588044275271E+00
Pb    1.0820543151682406E+01    5.6854228029167753E-01    2.6400594326695359E-01
Pb    9.8406043087982500E+00    1.8197073812880498E+00    8.8930106927232266E+00
Pb    1.1022259815290390E+01    1.6517363150011388E+01   -9.7346355214100573E+00
Pb    1.0995438600803375E+01    1.4914503264865012E+01    1.3089880203727415E+00
Pb    1.0986728712084158E+01    1.3794334425867019E+01    9.8864930176636019E+00
Pb   -1.6385800567283649E+01   -2.3939021808442284E+01   -1.6459742632046854E+01
Pb   -1.5949873719813741E+01   -2.1967860671737228E+01   -5.7266598993584727E+00
Pb   -1.5865819394804534E+01   -2.3423453885464273E+01    5.4806335328232922E+00
Pb   -1.6440375814063476E+01   -9.6057279768687636E+00   -1.7593893616895528E+01
Pb   -1.4774058090950252E+01   -6.8546425470153451E+00   -6.9174388528542643E+00
Pb   -1.7365008933239487E+01   -9.3264419005454489E+00    3.7124035484575342E+00
Pb   -1.5818569639835511E+01    6.7909630153712151E+00   -1.4780855989622514E+01
Pb   -1.4868845585451080E+01    7.0496094246588124E+00   -5.5511059228632442E+00
Pb   -1.5053446869114298E+01    6.0871895335050858E+00    4.9583704564323989E+00
Pb   -6.4115508180988225E+00   -2.2485418178319836E+01   -1.5397752788785732E+01
Pb   -5.1846540638042971E+00   -2.2227747547110773E+01   -5.7006817057850236E+00
Pb   -6.5852401310477857E+00   -2.0582088367515521E+01    3.9113217204305868E+00
Pb   -6.2349896029683336E+00   -8.9283109638755906E+00   -1.5283349298407833E+01
Pb   -4.8655246640006560E+00   -6.5348359853828564E+00   -4.5471182827547381E+00
Pb   -5.5520674435634243E+00   -6.9987924554508743E+00    4.8951127825711520E+00
Pb   -4.0299498378006753E+00    6.6161834235696260E+00   -1.5809568040591840E+01
Pb   -3.2485313298702940E+00    7.8425800564576633E+00   -5.3725708490191035E+00
Pb   -5.3093673317291383E+00    8.5820467738377513E+00    5.6844152442219027E+00
Pb    4.6823856174481504E+00   -2.3157159606759620E+01   -1.6239361268745029E+01
Pb    4.4618265290033516E+00   -2.1887904750485024E+01   -5.8505868458473360E+00
Pb    2.9249410934751161E+00   -2.1281526003199680E+01    3.2963326221518590E+00
Pb    5.0672640873130952E+00   -7.6315605116921876E+00   -1.7001953564317990E+01
Pb    3.6735809900728524E+00   -6.4079601623624267E+00   -5.9280232594579632E+00
Pb    5.3777980819981508E+00   -7.6242367419029753E+00    5.2552122126933059E+00
Pb    7.9573319140297825E+00    7.0257688467668222E+00   -1.5611324024245686E+01
Pb    7.4423455206949978E+00    8.1897525330728929E+00   -3.9978694667276122E+00
Pb    7.9179819345574609E+00    7.2778726562846634E+00    5.6864508139932948E+00
Pb   -1.0429217852535015E+01   -2.2021718843966024E+01   -1.0146762221546197E+01
Pb   -1.0581446129489645E+01   -2.3049303171164503E+01   -7.2937141039056930E-01
Pb   -1.1884462451877679E+01   -2.4922013971898853E+01    1.0929134023280108E+01
Pb   -1.1682029433615963E+01   -8.1747437054579173E+00   -1.2073568375469986E+01
Pb   -1.0646667487652733E+01   -7.3334826421305062E+00    2.9200083272420347E-03
Pb   -1.0686166509436834E+01   -7.8189115758946430E+00    1.1844223326254918E+01
Pb   -1.0906111248607095E+01    4.9890873499253336E+00   -1.1842180791655476E+01
Pb   -1.0543878343678674E+01    6.9778459623891935E+00   -5.7412860901419971E-01
Pb   -9.6519417584387330E+00    7.1875831065333928E+00    1.1104409680458412E+01
Pb   -9.8867795980973373E-03   -2.2712098175199930E+01   -1.1077939753703074E+01
Pb   -1.3917843239551877E+00   -2.2445073779551731E+01   -9.8479013550524885E-01
Pb   -5.7399302681040987E-01   -2.2660609387668167E+01    1.1296826754833527E+01
Pb   -4.0428562119727618E-01   -7.9628598564951991E+00   -1.2346000673322425E+01
Pb    7.4910402692182076E-02   -6.8124911882260202E+00   -6.0297581408993961E-01
Pb    2.2095341319367584E-01   -6.8594330179392022E+00    9.1892749064203816E+00
Pb    8.6228108720349983E-01    7.9527893235895162E+00   -1.1479106987965746E+01
Pb    3.1673835707564431E+00    9.1814108828767829E+00    1.1737413867382436E+00
Pb    8.9478502405373006E-01    7.2274888752530133E+00    1.1876174713351919E+01
Pb    9.9569745499638955E+00   -2.1528297971583456E+01   -9.6031203276504034E+00
Pb    9.7298411478157529E+00   -2.1683226272844838E+01   -1.1732581255588546E+00
Pb    1.0632727026239946E+01   -2.2893793303282560E+01    1.0798322472926412E+01
Pb    1.0784033386352769E+01   -6.6903977627757207E+00   -1.0030344588672410E+01
Pb    1.0085099809624731E+01   -5.7630331407951383E+00   -6.7716160314745932E-01
Pb    9.5427818002860683E+00   -6.9678919959516152E+00    1.0797039770937749E+01
Pb    1.0653399946088992E+01    6.8422248444915041E+00   -9.8383562118648502E+00
Pb    1.2159834022234804E+01    7.1499983968177361E+00    1.2025796158927626E-01
Pb    1.3036548049611346E+01    7.6570256308134317E+00    1.0552754925767365E+01
Cs   -1.0820262238502130E+01   -2.0060259503656724E+01   -1.6055007060270110E+01
Cs   -1.0256926215719400E+01   -1.8780751266719264E+01   -5.4145690519557910E+00
Cs   -1.0127596488247676E+01   -1.6766096845108542E+01    5.6267699731309895E+00
Cs   -9.5820665621985697E+00   -4.7678343040104290E+00   -1.5828139830214269E+01
Cs   -1.0372091190514903E+01   -4.3921083051153618E+00   -5.3194390320350786E+00
Cs   -1.0568304512834438E+01   -5.8756921066146273E+00    6.9964825993246871E+00
Cs   -8.2755202425196579E+00    1.1085747386885847E+01   -1.5662118135073952E+01
Cs   -9.8292512334523359E+00    1.2114241883736673E+01   -5.3395570798176868E+00
Cs   -9.8180579169278062E+00    1.1369640452104397E+01    6.0746284606473830E+00
Cs   -1.0659347406619406E+00   -1.7410417741840259E+01   -1.8762978485246990E+01
Cs   -1.6589001619650761E+00   -1.8390503188437581E+01   -7.8600056504855216E+00
Cs   -1.4446173741961474E+00   -1.9396873424105575E+01    6.7891476735301959E+00
Cs   -5.4552286217909063E-01   -3.7790382465737316E+00   -1.5679788939460902E+01
Cs    3.3416626843835379E-01    3.7725124220368930E-02   -4.9909329144468089E+00
Cs    1.1496224353330109E+00   -2.7956755079326339E+00    3.9108063918001270E+00
Cs    9.3210113643583659E-01    1.1244900836691736E+01   -1.6447550839372191E+01
Cs    1.7230038982279344E-01    1.3061092158281964E+01   -5.8881862747380804E+00
Cs   -1.1979315552228549E+00    1.3307955039976946E+01    4.9691989351302128E+00
Cs    1.0853974933252893E+01   -2.0822437898497036E+01   -1.6415754937873569E+01
Cs    1.1377728786889474E+01   -1.5623297063045158E+01   -6.1012174712567324E+00
Cs    9.3086899273336616E+00   -1.9800126779609123E+01    5.5907310100702192E+00
Cs    9.7331191681901377E+00   -2.6809665595235144E+00   -1.8457754826379858E+01
Cs    1.0157680466618341E+01   -2.3650382645264099E+00   -4.7381220517678502E+00
Cs    1.0228239768177941E+01   -2.4209971211655943E+00    5.2002435012308910E+00
Cs    9.7397834743091742E+00    1.1737013062515246E+01   -1.3076426245968571E+01
Cs    1.1722324941842233E+01    1.0759294949572814E+01   -6.4179028959982336E+00
Cs    1.2018890154359568E+01    1.0936800958042621E+01    4.5604665949683278E+00
Cs   -5.6841511199353372E+00   -1.2496846899352613E+01   -1.1178351207260263E+01
Cs   -3.2533446472537579E+00   -1.2088076218795104E+01   -1.7303178528879759E+00
Cs   -5.3988808665189634E+00   -1.0645077128048070E+01    1.0458623162499253E+01
Cs   -5.7206784063101903E+00    2.5392853021063382E+00   -1.0169462116558154E+01
Cs   -6.1753653029035487E+00    3.9045814259066542E+00   -2.1407379049289923E+00
Cs   -4.3557324366830530E+00    5.2060280501804108E+00    1.0638757855147393E+01
Cs   -4.3471321691772040E+00    1.9586459256393695E+01   -1.0176130965237361E+01
Cs   -4.1577963322573348E+00    1.8462272150088936E+01    8.6147790131576485E-01
Cs   -6.2145617298619245E+00    1.8373503016726158E+01    1.2279762474548777E+01
Cs    5.3424083955008124E+00   -1.1079736622350302E+01   -1.0015875737099119E+01
Cs    4.3666177162299853E+00   -9.9445106044563261E+00   -2.4488972839828698E+00
Cs    6.2384054785376710E+00   -1.0963341643636355E+01    9.5664945253672489E+00
Cs    4.9379460869558915E+00    4.6652572631538742E+00   -9.0382792804266856E+00
Cs    6.9285079707367005E+00    4.0417438743947249E+00   -3.3005737737489238E-01
Cs    5.7998777028309583E+00    4.7077641617467521E+00    1.2066516192880989E+01
Cs    6.1648925561082191E+00    1.9263259206723504E+01   -9.5553428057764833E+00
Cs    5.2644995818876259E+00    1.9207832875680491E+01   -1.0728061720808886E+00
Cs    7.3568628191024814E+00    1.9910335765463380E+01    8.3135223007362100E+00
Cs    1.5872639503981201E+01   -1.1619667553429759E+01   -9.4874194664936944E+00
Cs    1.5281453297862489E+01   -8.2041076726791520E+00   -2.7558087165441250E+00
Cs    1.6529320988942771E+01   -1.3153127984240566E+01    9.3873519234210132E+00
Cs    1.5833428232070796E+01    2.3422611377940910E+00   -1.0964969203493078E+01
Cs    1.6215825987135862E+01    4.3966590620953223E+00   -6.8825685923062287E-03
Cs    1.6202776419024456E+01    3.4130368653038738E+00    1.1275544563349213E+01
Cs    1.5616031924725347E+01    1.8681619136237629E+01   -1.1131043680265062E+01
Cs    1.6378370074362486E+01    2.0970325079066420E+01    9.2094566922608190E-01
Cs    1.5979177366408758E+01    1.8339328514656458E+01    1.0833584423285096E+01
Cs   -1.0327090587972558E+01   -1.2275685353162036E+01   -4.5577620971184718E+00
Cs   -9.3629623418040797E+00   -1.1016881740795395E+01    6.4275662273015213E+00
Cs   -1.2789227811192921E+01   -1.2749951541499380E+01    1.6194910865122729E+01
Cs   -1.1331845784129831E+01    2.9975652467420453E+00   -5.7070384064507458E+00
Cs   -1.1007141761016614E+01    3.3081856982327720E+00    6.6911551907996083E+00
Cs   -1.0474729810974047E+01    4.1462351258531909E+00    1.5358080957417078E+01
Cs   -9.3315058033113409E+00    1.8016210635969625E+01   -4.2765058300031580E+00
Cs   -1.1260653846798412E+01    1.6390056937316707E+01    6.0174246958383213E+00
Cs   -1.1997279320947943E+01    1.6570008819888820E+01    1.6572760578721216E+01
Cs   -1.0733002590641652E+00   -1.0752666707901863E+01   -6.3994998365898743E+00
Cs   -1.7607503630579022E+00   -1.0806073216674955E+01    3.7439278338874531E+00
Cs   -9.3078146286293770E-03   -9.7051295854499280E+00    1.4540320630343420E+01
Cs    1.9321522014307275E+00    8.0561861547777447E+00   -3.8918027353235582E+00
Cs    2.4619820904834328E-01    6.5655617826183965E+00    6.8593749508957034E+00
Cs   -1.1665090308484583E+00    2.3169570854233315E+00    1.5504524343525183E+01
Cs    8.7891678924751682E-01    1.9155709087533758E+01   -5.6074491922165981E+00
Cs    7.5672565720521223E-01    1.7818926466814105E+01    5.7177861781388168E+00
Cs   -2.4256389322051425E-01    1.9748779171651254E+01    1.6450066723085904E+01
Cs    1.0371087825740004E+01   -9.0316154710072585E+00   -5.5531562239553249E+00
Cs    9.0146370734860408E+00   -1.1480077890100288E+01    2.4883254935929418E+00
Cs    1.0422770360810190E+01   -9.7841289208924174E+00    1.5603519686757235E+01
Cs    1.1438722665135522E+01    3.9654975960687553E+00   -4.3772779000429463E+00
Cs    1.1336355729898617E+01    4.1114542992364420E+00    4.2217387564457418E+00
Cs    1.0430732750566293E+01    2.4552463409329977E+00    1.5109454697092872E+01
Cs    1.1847782085267594E+01    1.8004423861382886E+01   -3.5731168135468661E+00
Cs    1.2460271554515426E+01    1.7551775513218097E+01    5.9738816624616451E+00
Cs    9.1526098337721464E+00    1.8031717040107512E+01    1.6025150445664334E+01
Cs   -1.7392303752800967E+01   -1.9305186976940732E+01   -1.0997757696292201E+01
Cs   -1.3991483666327701E+01   -1.8367101440380953E+01    1.0262771537465387E+00
Cs   -1.7161552442531232E+01   -2.0116183371088137E+01    1.1285427448505365E+01
Cs   -1.6984307992555312E+01   -5.8894095132065383E+00   -1.3346043417969071E+01
Cs   -1.6335016991251504E+01   -4.2105700916189752E+00    7.0380134882888343E-02
Cs   -1.6703246713687161E+01   -4.0275135079261126E+00    1.0831040908641992E+01
Cs   -1.4403042032176289E+01    1.1359647229999409E+01   -9.6330279402239611E+00
Cs   -1.6018612313751923E+01    9.9120409225813173E+00   -8.5938327719300700E-01
Cs   -1.4662507515979254E+01    9.4453327782451595E+00    1.2407939374657900E+01
Cs   -5.6742311891158614E+00   -1.8479079718765345E+01   -1.0851411448205043E+01
Cs   -4.6745039822766099E+00   -1.8025850087596552E+01   -6.3720211278569705E-01
Cs   -7.5101349643888238E+00   -2.1273628927871066E+01    9.6265010926321555E+00
Cs   -4.2404073364635275E+00   -3.6719173502526665E+00   -9.7393076546250423E+00
Cs   -4.4863974668278139E+00   -3.8993170480672723E+00    7.4231601183903739E-01
Cs   -4.0089448258518949E+00   -4.2573085728076610E+00    1.0222822803743650E+01
Cs   -5.6776699938477897E+00    1.2650701118072545E+01   -9.2872330410942023E+00
Cs   -6.2828679065664685E+00    9.5142391140930425E+00   -4.9434398512510680E-01
Cs   -4.2611529481896175E+00    1.0334529856413473E+01    1.0791707091962483E+01
Cs    3.8084634594839200E+00   -1.8977739884856394E+01   -1.2497496644527544E+01
Cs    4.1645699331490400E+00   -1.6288873137142652E+01   -2.6435150248701333E+00
Cs    5.7746892174182181E+00   -1.9494979294289422E+01    1.1210674074286130E+01
Cs    5.4533132495977812E+00   -2.9332023747422742E+00   -1.2078539812278324E+01
Cs    4.5372087225435527E+00   -4.0521275770972496E+00   -3.9568950599643254E-01
Cs    4.9276682987506124E+00   -1.9796058962183281E+00    9.7857300863523484E+00
Cs    4.5438093780225648E+00    1.2834707628702986E+01   -1.0325414068719606E+01
Cs    8.2502799595470417E+00    1.0477640642587291E+01    7.2507814666791193E-01
Cs    6.6992283279588367E+00    1.0799143353877771E+01    1.0857396371128150E+01
Br   -1.5960569477748813E+01   -1.6189929615910117E+01   -1.3570108836159466E+01
Br   -1.4369095688163078E+01   -1.4705339465689669E+01   -3.6444051047679665E-01
Br   -1.3850981531020546E+01   -1.6899733826259119E+01    6.7669456946164717E+00
Br   -1.0829471889942960E+01    1.8362856968773045E+00   -1.1858386672037232E+01
Br   -1.3098715498018970E+01   -8.4598949678007118E-01   -3.2074777409320694E+00
Br   -1.3421615153299673E+01   -3.6129736238653023E+00    8.0848611505734720E+00
Br   -1.2389989077033770E+01    1.6673514220607938E+01   -1.1992264294799673E+01
Br   -1.1949259172025618E+01    1.5373666666723510E+01   -2.3214153540993245E+00
Br   -1.3418910263019150E+01    1.4826166417348260E+01    8.9098661113299649E+00
Br   -2.3102967380610973E+00   -1.5930997203499119E+01   -1.5246949692823341E+01
Br   -3.1016877974927053E+00   -1.4173162029727790E+01   -4.7546586930862986E+00
Br   -3.2292666222693391E+00   -1.2693035877543284E+01    7.3657213582457581E+00
Br   -2.0892317807923497E+00   -1.6543828088693808E+00   -1.2717037988064664E+01
Br   -2.8036137816842626E+00    3.2821164297805105E+00   -3.5240985335133477E+00
Br   -3.7765149858119615E+00    1.4315267180073143E+00    9.9309870892035548E+00
Br   -2.8658083581359022E+00    1.6223294590370752E+01   -1.1702147250429499E+01
Br   -1.6470006116493425E+00    1.5879611578242219E+01   -2.1055639965711670E+00
Br   -2.7630663297826059E+00    1.3990431129202726E+01    9.6305133488528742E+00
Br    6.6472904482631305E+00   -1.1080524641788488E+01   -1.3578164829473415E+01
Br    7.9327590825550853E+00   -1.3342162866524301E+01    3.7545090111639333E-02
Br    7.1858793482845416E+00   -1.7144226935453283E+01    8.2567415492791163E+00
Br    9.0936429964624228E+00    1.0251314926374169E+00   -1.2600292029168545E+01
Br    9.1741118330052629E+00    1.0574309454134285E+00   -3.1306844531483247E+00
Br    7.3675214441474948E+00    1.4314100970116737E+00    1.0632344739711957E+01
Br    1.1994839604036629E+01    1.7555650524348064E+01   -1.2466578669716649E+01
Br    7.9827206850174051E+00    1.5027178247179162E+01   -2.9355433146218215E+00
Br    5.8246844080893903E+00    1.4241330672961482E+01    8.4124368244623628E+00
Br   -1.1659414028594107E+01   -1.2822869329149587E+01   -8.7813594805071062E+00
Br   -1.1477249871507254E+01   -1.4567586551788848E+01    3.0732339615739694E+00
Br   -1.6486151353998089E+01   -1.0948856855041525E+01    1.2133520522194299E+01
Br   -1.3236615284465064E+01    5.6908431438922580E-01   -8.2097361113737524E+00
Br   -1.4404069708099223E+01   -2.4882877242133428E+00    2.6214601121059071E+00
Br   -1.2565509641382357E+01   -2.6391338232932643E-01    1.2968095733667072E+01
Br   -1.3368682555192935E+01    1.5316574342825302E+01   -6.6175556678518559E+00
Br   -1.1869041859885826E+01    1.3331450872859609E+01    3.6273500215851593E+00
Br   -1.5810668712606420E+01    1.2763895045004752E+01    1.1930113537321233E+01
Br   -3.8430980481698915E+00   -1.5116950975293840E+01   -9.7456866705394862E+00
Br   -2.3279936888777275E+00   -1.5406584095328638E+01    1.5369761596285694E+00
Br   -2.7257940752215313E+00   -1.2543022573140302E+01    1.2711557160050337E+01
Br   -4.2449644313332957E+00   -2.5025069093094665E-01   -7.7766524788153140E+00
Br   -2.6948639270773738E+00    9.3957652812483458E-02    6.4423987589600440E-01
Br   -4.1315333961867484E+00   -1.8632423685605186E+00    1.4371039600134509E+01
Br   -4.0344714440396343E+00    1.5926641546500333E+01   -7.3520885181550444E+00
Br   -3.1614753647492413E+00    1.5780354201999399E+01    2.9235568783690939E+00
Br   -2.8210660774498035E+00    1.5035839473416191E+01    1.4035062994781413E+01
Br    8.2293189588662816E+00   -1.3966038015143321E+01   -9.2813942047385840E+00
Br    8.7685365005948146E+00   -1.5946705713514211E+01    3.7569622203804718E+00
Br    7.0866041282567478E+00   -1.5651063034768857E+01    1.3708026885857278E+01
Br    7.9216882411082956E+00    9.4909567672554362E-01   -7.5931725411539741E+00
Br    6.6546163073646358E+00    9.2972394418222326E-01    2.1725075131609364E+00
Br    6.7012788258492595E+00    7.0403572502454692E-01    1.5101307635389041E+01