 # Version information for this restart file 
 # current date 2020-12-23 15:01:44.236
 # current working dir /Users/bvanbeek/Downloads/MM_MD_workdir/md
 # Program compiled at                             Fri Apr 19 11:24:34 CEST 2019
 # Program compiled on                                             192.168.1.124
 # Program compiled for                           Darwin-IntelMacintosh-gfortran
 # Source code revision number                                         svn:18464
 &GLOBAL
   PRINT_LEVEL  LOW
   PROJECT_NAME cp2k
   RUN_TYPE  MD
 &END GLOBAL
 &MOTION
   &MD
     ENSEMBLE  NPT_F
     STEPS  10000
     TIMESTEP     2.4999999999999996E+00
     STEP_START_VAL  7500
     TIME_START_VAL     1.8749999999998061E+04
     ECONS_START_VAL    -5.5495911227455137E+00
     TEMPERATURE     3.0000000000000000E+02
     &BAROSTAT
       PRESSURE     1.0100000000000000E+00
       TIMECON     4.9999999999999994E+02
       &VELOCITY
            -3.5977655577725719E-07   -1.8586613027188196E-06    8.7340851105850733E-08   -1.8586613027188183E-06 \
             4.6542134416965181E-07    1.3985120888296464E-06    8.7340851105850296E-08    1.3985120888296419E-06    1.1702306074410818E-06
       &END VELOCITY
       &MASS
             2.1920353963970435E+08    2.1920353963970435E+08    2.1920353963970435E+08    2.1920353963970435E+08 \
             2.1920353963970435E+08    2.1920353963970435E+08    2.1920353963970435E+08    2.1920353963970435E+08    2.1920353963970435E+08
       &END MASS
       &THERMOSTAT
         TYPE  CSVR
         &CSVR
           TIMECON     9.6755373060191392E+00
           &THERMOSTAT_ENERGY
                 3.9741142776850830E-01
           &END THERMOSTAT_ENERGY
           &RNG_INIT
Wiener process for Thermostat # 1        1 F T F  -9.2352357580179978E-01        3346263895.0         851030228.0        2194316246.0         394435914.0         401311068.0         401469713.0             12345.0             12345.0             12345.0             12345.0             12345.0             12345.0             12345.0             12345.0             12345.0             12345.0             12345.0             12345.0
           &END RNG_INIT
         &END CSVR
       &END THERMOSTAT
     &END BAROSTAT
     &THERMOSTAT
       TYPE  CSVR
       &CSVR
         TIMECON     4.9999999999999994E+02
         &THERMOSTAT_ENERGY
              -3.6947657412592076E+00
         &END THERMOSTAT_ENERGY
         &RNG_INIT
Wiener process for Thermostat # 1        1 F T F  -2.2720064660670447E-02        1020904801.0        3455782595.0        3906487911.0        1375660382.0        1392938669.0        3235619644.0             12345.0             12345.0             12345.0             12345.0             12345.0             12345.0             12345.0             12345.0             12345.0             12345.0             12345.0             12345.0
         &END RNG_INIT
       &END CSVR
       &PRINT
         &TEMPERATURE  ON
           FILENAME 
           &EACH
             MD  10
           &END EACH
         &END TEMPERATURE
       &END PRINT
     &END THERMOSTAT
     &AVERAGES  T
       &RESTART_AVERAGES
         ITIMES_START  1
         AVECPU     3.2095662000030049E-02
         AVEHUGONIOT     0.0000000000000000E+00
         AVETEMP_BARO     9.6890618322706598E+02
         AVEPOT    -4.4461929837620282E+00
         AVEKIN     6.6838318891208448E-01
         AVETEMP     2.6104943245882271E+02
         AVEKIN_QM     0.0000000000000000E+00
         AVETEMP_QM     0.0000000000000000E+00
         AVEVOL     2.5379654414718278E+07
         AVECELL_A     2.2846830947651179E+02
         AVECELL_B     2.4720976419837743E+02
         AVECELL_C     1.3109450342634437E+02
         AVEALPHA     7.7374353420175296E+01
         AVEBETA     1.0472553183597697E+02
         AVEGAMMA     1.0164162710447688E+02
         AVE_ECONS    -1.4511242207427570E+00
         AVE_PRESS     3.4671858805180968E+00
         AVE_PXX     2.9522330965722281E+00
       &END RESTART_AVERAGES
     &END AVERAGES
   &END MD
   &PRINT
     &TRAJECTORY  ON
       &EACH
         MD  10
       &END EACH
     &END TRAJECTORY
     &CELL  ON
       FILENAME 
       &EACH
         MD  10
       &END EACH
     &END CELL
     &FORCES  ON
       FILENAME 
       &EACH
         MD  10
       &END EACH
     &END FORCES
   &END PRINT
 &END MOTION
 &FORCE_EVAL
   METHOD  FIST
   STRESS_TENSOR  ANALYTICAL
   &MM
     &FORCEFIELD
       VDW_SCALE14     1.0000000000000000E+00
       EI_SCALE14     1.0000000000000000E+00
       SHIFT_CUTOFF  T
       DO_NONBONDED  T
       IGNORE_MISSING_CRITICAL_PARAMS  T
       &SPLINE
         R0_NB     1.0000000000000001E-01
       &END SPLINE
       &NONBONDED
         &LENNARD-JONES
           ATOMS Cs Cs
           EPSILON     2.2644852172126850E+01
           SIGMA     5.8500000000000005E+00
         &END LENNARD-JONES
         &LENNARD-JONES
           ATOMS Cs Pb
           EPSILON     8.6920055954630953E+01
           SIGMA     5.1000000000000005E+00
         &END LENNARD-JONES
         &LENNARD-JONES
           ATOMS Br Pb
           EPSILON     2.0528187276773045E+02
           SIGMA     2.9000000000000004E+00
         &END LENNARD-JONES
         &LENNARD-JONES
           ATOMS Br Cs
           EPSILON     5.3481070753900497E+01
           SIGMA     3.8500000000000005E+00
         &END LENNARD-JONES
         &LENNARD-JONES
           ATOMS Br Br
           EPSILON     1.2630795322675199E+02
           SIGMA     4.2599999999999998E+00
         &END LENNARD-JONES
         &LENNARD-JONES
           ATOMS Pb Pb
           EPSILON     3.3363415533600221E+02
           SIGMA     5.9800000000000004E+00
         &END LENNARD-JONES
       &END NONBONDED
       &CHARGE
         ATOM Cs
         CHARGE     2.0000000000000001E-01
       &END CHARGE
       &CHARGE
         ATOM Pb
         CHARGE     4.0000000000000002E-01
       &END CHARGE
       &CHARGE
         ATOM Br
         CHARGE    -2.0000000000000001E-01
       &END CHARGE
     &END FORCEFIELD
     &POISSON
       PERIODIC  XYZ
       &EWALD
         EWALD_TYPE  SPME
         GMAX  22
         O_SPLINE  4
       &END EWALD
     &END POISSON
     &PRINT
       &FF_INFO  LOW
         SPLINE_INFO  F
         SPLINE_DATA  F
       &END FF_INFO
     &END PRINT
   &END MM
   &SUBSYS
     &CELL
       A     4.6339464271614918E+02   -1.3309080521927248E+02   -1.0207289658014193E+02
       B    -1.8508067725684901E+02    4.1852757323690895E+02    9.6025925911183194E+01
       C    -1.1750602194348471E+02    7.7478186276981120E+01    1.6094423941146277E+02
       PERIODIC  XYZ
       MULTIPLE_UNIT_CELL  1 1 1
     &END CELL
     &COORD
Br   -2.3257191961087551E+02    2.1271515080038003E+02    9.5394424360883178E+01
Br   -2.7919535056148129E+02    2.4401597945263785E+02    1.5094107428100497E+02
Br    5.4069774869609027E+01   -1.4509642954989997E+02   -5.6255577638112122E+01
Br   -6.6329388635526328E+01   -4.2264707226607271E+01    9.2275351286706293E+00
Br    8.2035216103876351E+01   -1.0212997803439531E+02   -6.4923661542621476E+00
Br    4.2611492758157574E+01   -9.5228196301224628E+00   -5.9944995281615832E+01
Br   -1.9111268622990945E+00    3.6400283570621004E+00   -1.6678076524722801E+01
Br   -1.6923571007313008E+01    1.2728941035233397E+01    4.0920135261308410E+01
Br   -7.0997594152640545E+01    1.3598391200979694E+02    3.5563235358063864E+01
Br   -7.9513884920377393E+01    1.6064545543584234E+02    6.5851570026976404E+01
Br   -1.0125159748734170E+02    1.6113925198276661E+02    8.4948945285986440E+01
Br    1.9650584081290097E+02   -1.7350858372792504E+02   -1.0928577834831360E+02
Br    1.4418313239087109E+02   -7.2534133832201405E+01   -2.8233344925720630E+01
Br    1.9849678115085626E+02   -1.3018707083664657E+02   -2.3841445180214716E+01
Br    1.5325701667629579E+02   -5.8758066479063729E+01   -5.0790512288483789E+01
Br    1.4360696347731874E+02   -2.5548869184382671E+01   -3.0369988573041400E+01
Br    6.6703209965389235E+01    2.0593847141898763E+01   -6.1969878693279901E+00
Br    8.2744442756511035E+01    1.5647176020497665E+02   -1.0622918178479368E+01
Br    1.6146617666797138E+02    1.4092102796563245E+02   -2.0728692307861088E+01
Br    2.3387002414774358E+01    1.1083227637542576E+02    3.4894860403395128E+01
Pb   -1.7532927769806642E+02   -7.0350420308860436E+01   -4.2418424508135715E+01
Pb   -1.0172801062085097E+02   -1.0878276987856626E+02    1.4221627145529546E+01
Pb   -2.1731011918716553E+02   -2.7411369202213873E+01    6.8572086152329234E+01
Pb   -5.6567721462746896E+01   -1.1944807349411570E+02   -9.7051959546194055E+01
Pb   -2.4232639913520225E+02    7.3066789771434188E+01    3.1064208746245033E+01
Pb   -1.6907665451543878E+02    2.3019709788234703E+01    4.2572020930649344E+01
Pb   -3.1059574395454717E+02    1.3555558973046578E+02    8.2301212240129722E+00
Pb   -2.5327296664865071E+02    2.0591113640077310E+02    5.0581994624269775E+01
Pb   -2.3929658588677626E+02    1.8772792771447735E+02    9.1649698778300106E+01
Pb    4.6778641564908341E+01   -1.5547323529824453E+02   -8.1154753059071169E+01
Pb   -6.7631580944517777E+00   -1.1788271096829827E+02   -2.4184546931859590E+01
Pb   -7.6181935689609190E+01   -1.0040794929366194E+02    1.7434406920922264E+01
Pb    4.6776535770780818E+01   -4.2139093350262172E+01   -1.0546609730303237E+02
Pb   -5.1697526578334042E+01    2.7605820690793884E+01   -1.1300577813683063E+01
Pb   -1.5959396290750774E+02    4.8757037178876416E+01    3.7721973172982779E+01
Pb   -9.2517001006626700E+01    1.1129020298675930E+02   -5.6068651066363842E+00
Pb   -1.3148130840265998E+02    2.4007575662055703E+02    4.1861012676925583E+01
Pb   -2.2198967314257544E+02    2.3107230131843457E+02    1.1371459407815379E+02
Pb    2.0895574714624308E+02   -2.4932595077947664E+02   -1.5724426574445263E+02
Pb    1.6968308112201746E+02   -1.8329005454024343E+02   -8.8673662605529969E+01
Pb    1.8441863275617391E+02   -1.5533122168962782E+02   -3.9573321523317020E+01
Pb    1.2418396441658157E+02   -4.9889518041521072E+01   -4.5743969630881516E+01
Pb    1.5098158014470010E+02   -5.8051787960435334E+01   -4.9137439760112436E+01
Pb   -9.3874518945404990E+00    1.4741097735551358E+01    1.2625592516171583E+01
Pb    7.4075605430217720E+01    1.1864941305209871E+02   -5.8860924455229942E+01
Pb    1.6875252388754458E+01    1.3178121790767483E+02   -2.5426681020764470E+01
Pb    7.3180103627715551E+00    1.1310988469966586E+02    2.4975745020861595E+01
Pb   -1.3724712371020181E+02   -1.0958274851643348E+02   -3.6076700868371042E+01
Pb   -9.0134747830683921E+01   -1.1292243096924523E+02    3.7931745967029800E+00
Pb   -9.6498820541604815E+01   -6.1255251166934748E+01    6.6483525904021434E+01
Pb   -1.4350943664628480E+02   -1.7891107131265447E+00   -3.2126826649944590E+01
Pb   -1.3516298678166430E+02    3.4015828642161324E+01    2.3908574842199439E+01
Pb   -1.0689358767270622E+02   -2.6106565587932018E+01    5.2656945952257594E+01
Pb   -1.5299212542935146E+02    1.4917465473470128E+02   -6.3989810819875288E+00
Pb   -2.3141209887215419E+02    2.0999013494432035E+02    9.5022561440585548E+01
Pb   -2.6697053525973206E+02    2.2025451816329465E+02    1.0804400985402921E+02
Pb    5.7546274233536067E+01   -1.5064133970850946E+02   -5.8760979936649058E+01
Pb    1.8648582092634058E+02   -1.6257819936662906E+02   -5.8995376127176137E+01
Pb    9.5095439403060567E+01   -1.3730374050435060E+02    4.0437022984950275E+00
Pb    2.4658688843821636E+01   -1.4988802489992630E+00   -6.9986431745097761E+01
Pb    1.5431849368262793E+00    1.1639850248884121E+01   -1.3561162872409399E+01
Pb   -1.4586228761844234E+01    1.4445866365723672E+01    4.1592190914929667E+01
Pb   -7.5016970069171180E+01    1.3726898635547303E+02    3.1252953704814573E+01
Pb    1.2216297661875253E+00    1.4338385153732708E+02    3.2362052403508947E+01
Pb   -9.9734260141521531E+01    1.5829735735754025E+02    8.2636568071341173E+01
Pb    1.8616258037461745E+02   -1.7998296654514667E+02   -1.0036556780787720E+02
Pb    2.3324219870549521E+02   -1.5922298089898149E+02   -4.1827126109628104E+01
Pb    1.9037263015975660E+02   -1.3929717568102885E+02   -2.3226192657427976E+01
Pb    1.9108614238189926E+02   -7.5351094393850417E+01   -7.2509088144646455E+01
Pb    1.9177293876106566E+02   -6.8552145037456455E+01   -5.0978282434236533E+01
Pb    2.2886338792571962E+01    3.4564155507446079E+00    3.0329999617084635E+01
Pb    7.5195672722624408E+01    1.1232378806573196E+02   -4.1005068868905397E+01
Pb    2.0012267073224814E+02    5.8869357131316200E+01   -3.1332265143263193E+01
Pb    4.8812358865004528E+00    1.1942057596566939E+02    3.1770478866370880E+01
Pb   -9.5902966274620908E+01   -1.8130245135820286E+02   -8.6657264227911412E+01
Pb   -1.3328563590864073E+02   -1.1500547248141292E+02    3.9400434645570184E+00
Pb   -8.6925972609645285E+01   -2.0043394587368095E+02    2.5628786240210104E+01
Pb   -1.4669254613730047E+02   -6.6246570603460754E+01   -7.5311202798300926E+01
Pb   -2.3069105643963744E+02    2.2608174103466229E+01    2.0803097520975754E+01
Pb   -1.9717315993889852E+02   -1.8546128983061209E+01    4.1848074963143361E+01
Pb   -3.2539861991411226E+02    1.1040280394703349E+02    1.2914717626262743E+01
Pb   -2.7050626497542834E+02    1.0919717973812604E+02    7.8515735452433049E+01
Pb   -2.6177087432050115E+02    1.4662789045710616E+02    7.5118112638412200E+01
Pb    5.4140712624515047E+01   -2.2499766575916760E+02   -9.9101689030130771E+01
Pb    6.1380633567189280E+00   -1.5683729850041581E+02   -6.4686896148047538E+01
Pb   -5.0127966704286514E+01   -1.4138169306558169E+02    5.6432315833677471E-01
Pb   -2.3652037147353116E+01   -9.5255583652906125E+01   -7.8818441837172088E+01
Pb   -5.4991291467219185E+01   -4.8504072414664925E+01   -1.1834926986786771E+01
Pb   -6.5147769027353178E+01   -4.1004227765827473E+01    6.5005350408736220E+00
Pb   -4.0897399054737264E+01    6.3070073009444037E+01   -3.6229807225740906E+01
Pb   -4.4514574482956405E+01    3.3535875755769389E+01   -1.4634332469110195E+01
Pb   -1.3544146493840918E+02    1.5214379503802141E+02    9.9236020503463351E+01
Pb    2.3005022946557514E+02   -2.9096725826451740E+02   -1.5567737016565889E+02
Pb    6.3215175285014624E+01   -1.9969895268108374E+02   -6.1460882636690542E+01
Pb    1.7783406876850702E+02   -1.7946836014620007E+02   -4.1841518412685978E+01
Pb    1.2708602603078596E+02   -7.7977364141320891E+01   -1.2999592622834564E+02
Pb    6.5697770478076734E+01   -4.9697448840112159E+01   -3.3249949767067967E+01
Pb    1.3616418753477413E+02   -9.0982975454028306E+01   -2.7631418823043422E+01
Pb    1.4726218910645414E+02   -4.7553058900020613E+00   -7.9350862159786246E+01
Pb    9.4061717030890321E+01    1.0734467311252756E+01   -1.7016045399660896E+01
Pb    6.5024362319575800E+01    1.1501915200633018E+01   -9.0372808895415879E+00
Pb   -1.0535209816146890E+02   -1.0989048380924127E+02   -5.7476227834232319E+01
Pb   -1.1554959470957893E+01   -1.7221190280532451E+02   -3.3931282772102925E+01
Pb   -9.4146543789566891E+01   -1.7659573403454249E+02    5.7660943979252416E+01
Pb   -5.8651930137846435E+01   -8.2964366764421001E+01   -7.2109731447204993E+01
Pb   -1.1352346337751078E+02   -5.0950836197503236E+01   -6.5989746294166469E+00
Pb   -1.7006341552032026E+02   -2.9206812538264167E+01    7.1255257622632442E+01
Pb   -4.4885834884156473E+01    7.2660056724487717E+01   -1.4490890547075935E+01
Pb   -1.6945132430706974E+02    9.3155103816178524E+01    5.1346440603995447E+01
Pb   -1.9184835700923614E+02    1.3499000391817742E+02    1.2941647132659901E+02
Pb    3.8564649633816266E+01   -1.6519134472949978E+02   -7.8442944024198397E+01
Pb    4.9272400616586353E+01   -2.0644620171649416E+02   -5.0610805108896599E+01
Pb    8.7521067509386029E+01   -2.2442201185185684E+02    1.1874111953464968E+01
Pb    1.7689501992825086E+01   -1.2165848899269052E+02   -8.7969999116942375E+01
Pb   -2.9167688504642523E+01   -2.5788154232238558E+01    1.6832737947306565E+01
Pb    5.5407443595047020E+01   -8.5494741774095502E+01    6.2763593709060563E+00
Pb    4.8485357983296836E+01    6.2297641238514380E+01   -5.0033770573138725E+01
Pb    3.2719736319351526E+01   -2.9538827587188227E-01   -2.6769010861340266E+00
Pb   -9.2421784197581232E+01    1.1929897762703689E+02    7.5220113133774134E+01
Pb    2.6843824092694547E+02   -2.7393153792284187E+02   -1.1548642884180801E+02
Pb    1.7412699011718070E+02   -2.5346516414781652E+02   -3.7839033623525559E+01
Pb    1.9088661948449504E+02   -2.4474363104344221E+02   -2.7475228257244698E+01
Pb    2.4770932340980880E+02   -1.1971024970537334E+02   -9.6917114929606328E+01
Pb    1.5483544600094507E+02   -6.5168056781450005E+01   -3.4394451439279095E+01
Pb    9.3262559514169112E+01   -4.8179690463684032E+01    3.2632889315737252E+01
Pb    1.4239987166942976E+02   -5.2604212625712663E+01   -5.5803159747916339E+01
Pb    1.3263092746640200E+02   -2.9079145069316514E+01   -3.0649878674343523E+01
Pb    8.6956502008562371E+00    1.0915367865976607E+02    7.2311532219895184E+01
Cs   -2.0454882315617699E+01   -2.0992446298163168E+02   -9.4604601009674298E+01
Cs   -5.2260131167957610E+01   -9.0909841680778328E+01   -1.4110632686968225E+01
Cs   -1.3842502660768218E+02   -2.8729540242012803E+01    7.5168446928293889E+01
Cs   -1.5211546408477822E+01    1.2231356906005525E+01   -6.0298212253758074E+01
Cs   -1.6016540420673127E+01   -5.3136018492630171E+01   -4.8759061654773596E+01
Cs   -1.4697767816575080E+02   -1.2962201934003403E+01    4.9381148407754026E+01
Cs   -9.1922772601471209E+01    4.1227237453670838E+01   -3.3136776858178145E+01
Cs   -1.3215699460657751E+02    1.1558821220766505E+02    3.9989252252072003E+00
Cs   -2.2408233332196960E+02    1.7093975216223282E+02    4.5168683607679050E+01
Cs    1.9018670672284622E+02   -2.7667867476620626E+02   -1.4012619763895646E+02
Cs    5.4102154839865175E+00   -1.5941660166602142E+02   -4.0802120255043164E+01
Cs    1.5283193661475428E+02   -1.7513803736282202E+02   -5.1271128098192769E+01
Cs    6.7219005565415699E+01   -3.7178238658384842E+01   -7.7099378908194282E+01
Cs   -1.9422700709226458E+01    4.4838146390065079E+00   -4.5144141672324549E+00
Cs   -2.9354207637382689E+01    1.7127632221842955E+01    5.3285075077622835E+01
Cs    1.3304149283236395E+01    7.2039710975850596E+01   -6.9897311297120083E+01
Cs   -1.9415069866200103E+01    1.2498295907215351E+02    6.3387631445689552E+00
Cs   -9.7167794682105352E+01    1.1241081251985727E+02    4.7811793643886155E+01
Cs    2.6954358867561797E+02   -2.6911331649544422E+02   -1.7571785644184177E+02
Cs    1.7471818827014806E+02   -2.1664696675774056E+02   -1.0732009857592689E+02
Cs    2.3212419504041358E+02   -3.0149807439147611E+02   -8.4433504913728527E+01
Cs    1.6272204889021259E+02   -6.2036678926830731E+01   -8.6313944825451571E+01
Cs    2.0782525697534930E+02   -9.8017913886672432E+01   -5.8903536589902515E+01
Cs    1.4976086520197151E+02   -6.8496668712872449E+01   -3.1565731472995630E+01
Cs    1.2558023704456774E+02    4.6539204761069648E+01   -4.1724201913401160E+00
Cs    1.5143339215443478E+02    4.2432825415797474E+01    3.7216096143705300E+01
Cs    2.4106588102605873E+01    1.0699683235471521E+02    4.1400941176563471E+01
Cs    1.6087612562717023E+01   -7.6431103455877235E+01   -7.5676811949685799E+01
Cs    6.9389350363113365E+01   -6.3032951637955954E+01   -2.9377368796534935E+01
Cs   -5.5192149186379908E+01   -1.0457447355020264E+02    5.8614022151848857E+01
Cs   -1.1910692124618367E+02    1.1015439306278768E+01   -1.3867276734317779E+01
Cs   -1.2031025335081743E+02    1.3662962259983701E+02    7.1007843275152908E+01
Cs   -1.1755685969201487E+02    2.4769666771957816E+01    5.9487897098929047E+01
Cs   -1.1890150597327025E+02    2.0645277091781605E+02    1.2497891092796547E+01
Cs   -1.0844654995680038E+02    1.9679174547409730E+02    9.4395801542951006E+01
Cs   -1.6183231701871594E+02    2.7920679867908410E+02    1.1681826665408896E+02
Cs    2.2335069653760760E+02   -1.1687942090406415E+02   -9.6811760041814338E+01
Cs    1.4315897490736546E+02   -6.9633084887419926E+01   -4.5170922816004946E+01
Cs    8.4949109519681571E+01   -1.1556789879586012E+02   -1.2252106391940799E+01
Cs    6.8747582802423210E+01    4.9488984611023859E+01   -4.7974428038623195E+01
Cs    8.2291062260486143E+01   -4.7056867185931225E+01   -2.4591712776936856E+01
Cs   -2.1134081053576601E+01    9.0812839172629296E+01    4.8477817331346628E+01
Cs    2.2840542984799534E+00    1.5274399912648965E+02   -2.8345494182959278E+01
Cs    4.5788854793534838E+01    1.5538695799996009E+02   -2.9746841744359262E+01
Cs   -2.2569349540173238E+01    2.2252489226076099E+02    5.3786835095032963E+01
Cs    2.7198723699209006E+02   -1.1881114843501118E+02   -8.6707051963200684E+01
Cs    3.5958167862675953E+02   -1.9044176081854800E+02   -1.2920324595893700E+02
Cs    1.5505049732120480E+02   -1.0309792846529990E+02    1.6452050348825658E+01
Cs    2.5666620380728853E+02   -1.2322032603679371E+02   -9.8366968140107133E+01
Cs    2.3756528641770527E+02   -6.9327319887526684E+01   -8.8041944051201881E+01
Cs    2.8163562279355290E+02   -6.7228579163751718E+01   -1.2146870529239335E+01
Cs    1.6498389207121389E+02    7.0925889439965999E+01   -5.4958746582466063E+01
Cs    1.7368311395849446E+02    1.2558043727346998E+02   -1.8185987932869576E+01
Cs    1.5897941609513762E+02    1.1127449097747349E+02    3.3057278204979404E+01
Cs   -3.4181401326273672E+01   -9.7548989536086864E+01   -7.4468478564219694E+01
Cs   -1.2884528281160252E+02   -3.0032093556866524E+01    4.0466321801226295E+00
Cs   -1.8182487029589922E+02   -6.4854844753117824E+00    9.1893793245576830E+01
Cs   -7.1247704021918821E+01    5.1621344530351664E+01   -3.7377848445078876E+00
Cs   -1.9575276226033452E+02    5.5905284709216417E+01    2.5159495939829217E+01
Cs   -1.3765812488965861E+02    8.3512580746870029E+00    8.4964582416927882E+01
Cs   -1.7485277428330625E+02    2.4732450452961652E+02    3.0914899044482492E+01
Cs   -2.2048566506853993E+02    2.1661215249611450E+02    9.2078069886375943E+01
Cs   -4.0283052809817150E+02    2.2426361117181591E+02    1.6084282431474432E+02
Cs    8.7510992770114115E+01   -7.9654385169486915E+01   -1.1050240679378332E+02
Cs    5.7729742647705713E+00   -6.8426736310629551E+01    3.8989190456297176E+00
Cs    3.7696082657986288E+01   -3.6809161359390288E+01    2.5160017893059635E+01
Cs    2.5503377952973135E+01   -7.9105878504345437E+00   -4.1221736298703782E+01
Cs   -2.8574636793895691E+00    3.7919884382453404E+01    1.7927820818541683E+01
Cs   -8.1476967529245499E+01    6.7989759225903967E+01    6.7970756808849558E+01
Cs   -6.8245777346228309E+01    1.5078746451402947E+02    3.2410237234243255E+01
Cs   -3.9830976831744856E+01    1.4095269156821416E+02    4.6474816334024261E+01
Cs   -1.5892072016450314E+02    1.7866409282258837E+02    1.4994408673208790E+02
Cs    1.9644877652384511E+02   -1.8102013873971728E+02   -9.9820302908501759E+01
Cs    2.3300456403551505E+02   -1.2753987361911982E+02   -3.2337540849892832E+01
Cs    1.9549343262765962E+02   -1.1007381510290782E+02    1.4816883520950245E+01
Cs    2.1765872665549756E+02   -4.4610190368954875E+01   -4.7641369724647262E+01
Cs    3.2793188344994036E+01    2.6357439090067178E+01    3.6264490470493200E+01
Cs    2.1485132737201894E+01    8.0518071794855103E+01    6.7797816048188579E+01
Cs    1.6471826270044656E+02    1.2590897373680410E+02   -2.6884318131009170E+01
Cs    1.3325570648583659E-01    1.6355733272184744E+02    3.2733640824044400E+01
Cs    1.6208953351775857E+01    1.7517879782995615E+02    8.3765764280988478E+01
Cs   -1.4582137624399070E+02   -1.2506185598383581E+02   -3.7532857963046716E+01
Cs   -8.6723139714087566E+01   -1.5373790739335058E+02    6.0421167175929533E+01
Cs   -2.5737303881394479E+02   -6.0118724389553180E-01    1.0449579649951592E+02
Cs   -2.3305993764387185E+02    3.8386503250576163E+00   -3.5517209541188578E+01
Cs   -2.2354097639402539E+02    3.8432937470912023E+01    5.6801102714208284E+01
Cs   -1.9367250820011361E+02    4.5148256966609877E+00    7.5192535407081493E+01
Cs   -2.1622645302822360E+02    2.0467700353360655E+02    4.8155071812269298E+01
Cs   -1.5785139300338062E+02    2.2150939843966896E+02    4.9717537672120486E+01
Cs   -2.1763526941493305E+02    1.5954685208053596E+02    1.2561748644403963E+02
Cs    1.8103097218391920E+01   -1.3764993440118707E+02   -5.9120326156806598E+01
Cs   -4.5101116044984352E+01   -1.4660518369830194E+02   -2.8183691930595039E+01
Cs    4.0864363945859971E+01   -1.6702063400506574E+02   -1.8623778612373680E+01
Cs    1.7924533722458317E+01   -4.5119333920196183E+01   -2.4762459492857690E+01
Cs   -7.6521823745684785E+01   -3.7494054838961603E+01   -4.7294089033081104E+00
Cs   -6.0455278420189728E+01   -6.8206319009893335E+01    5.2293416916945166E+00
Cs    1.8274636034178972E+01    5.7962503597163511E+01   -3.9003514584632967E+01
Cs   -2.8535169800785830E+01    7.5453846462176216E+01   -1.2233564474498836E+01
Cs   -1.5299304621582235E+02    2.1466420295436470E+02    8.8255084674882099E+01
Cs    1.1385261382436408E+02   -2.3850603522593565E+02   -9.9041634698021284E+01
Cs    1.5787976821859627E+02   -1.6114344894976841E+02   -6.6195594719570423E+01
Cs    1.5273420734428475E+02   -1.4727183387551699E+02   -2.0103476330409226E+01
Cs    1.1637596697917587E+02   -8.4128143944029020E+01   -9.8908652089977878E+01
Cs    3.9306798843987423E+01   -4.9277228393560769E+01   -1.9012555181619302E+01
Cs    4.7659097132952972E+00    1.7085355463739373E-02    2.3384780575240040E+01
Cs    1.0311359429823499E+02    4.3148051167513621E+01   -6.7203627875150474E+01
Cs    5.5746133860049611E+01    4.6665744523015952E+01   -1.1354945652139532E+01
Cs   -3.9217809665299725E+01    1.7557558704182898E+02    9.4641543328596939E+01
Br   -1.2914997184971514E+02   -1.2222333046061809E+02   -3.7852361606994684E+01
Br   -2.0183985007820297E+02   -8.4959708754960310E+00    4.1856435783291332E+01
Br   -2.1931021708069639E+02   -2.9623604491542448E+01    7.0324631521238729E+01
Br   -1.4087356515654338E+02   -3.2179855609225699E-01   -3.0523600091492835E+01
Br   -1.9995563884775368E+02    5.6477394427413842E+01    1.6920930563512552E+01
Br   -1.6910799058475087E+02    1.4781320152326812E+01    4.0320961923625141E+01
Br   -1.1966458386703169E+02    1.3528611616581631E+02   -4.3551187885757283E+00
Br   -2.3352484858761031E+02    2.2626880027217962E+02    8.3252696490378000E+01
Br   -2.7405507489389129E+02    2.2348702577054345E+02    1.1380618123568584E+02
Br   -2.5403064450692877E+01   -1.0085450329023179E+02   -7.7362424715530139E+01
Br   -2.3658227359934994E+01   -1.0030580628376521E+02   -3.0175171274486630E+01
Br   -6.3392770423634616E+01   -6.1115800987972221E+01    5.4034230669997472E+00
Br    9.2676061076436653E+01   -8.0566382675200018E+01   -1.0531089333347509E+02
Br   -1.6092168512794227E+00    1.8330698114097089E+01   -1.0508801996355992E+00
Br   -2.6722329489101380E+01    1.6779431073746323E+01    4.7395842276406555E+01
Br   -9.3416894642392563E+01    1.1196220769958964E+02   -8.7844984835023805E+00
Br    6.3075192788845824E-01    1.4405166490969242E+02    2.8270151668335252E+01
Br   -1.7760033831028835E+02    2.2432726242281865E+02    8.8143744183267430E+01
Br    2.2242868333923968E+02   -1.1454712875874664E+02   -1.0122624369306797E+02
Br    1.8053028757956210E+02   -1.7820581707303759E+02   -4.0203335884338209E+01
Br    1.7131077250919341E+02   -1.4969357767352557E+02   -2.4960114400895883E+01
Br    1.9735916211769029E+02   -6.3789054066701958E+01   -6.7836059778963630E+01
Br    1.5283195047186410E+02   -4.9244218909052705E+01   -6.2210905630861689E+01
Br    2.4833997787013320E+01    9.5862648929962440E+00    2.0381048642992216E+01
Br    7.4290240969552372E+01    1.1053203957896129E+02   -3.7841892577882554E+01
Br   -1.6699250809779240E+01    1.4267663786095449E+02   -1.5571067974094605E+01
Br   -1.3990468178102748E+02    2.0379738279097350E+02    1.0050437013879964E+02
Br   -1.0354191803401618E+02   -1.7487543958223259E+02   -1.9042711536618697E+01
Br   -7.1462243920242813E+01   -6.4415041458831283E+01    4.8100239470227697E+00
Br   -2.6986991297740224E+02    9.2771054016640342E+00    8.3390361644327442E+01
Br   -2.4616329421690298E+02    6.2380872355842804E+01    4.5356946045979612E+01
Br   -2.7773215509171433E+02    4.1830476676101298E+01    4.3126666140362367E+01
Br   -1.7894463320088420E+02   -3.2256290437204228E+01    6.5775060010309645E+01
Br   -2.3471800723526451E+02    1.9735298025486668E+02    4.5575381246590659E+01
Br   -2.3265020593736429E+02    1.8311310315184477E+02    9.8715813522156438E+01
Br   -4.2410871441642200E+02    2.1029978792853160E+02    1.7167398812118898E+02
Br    2.1314533432931089E+01   -1.3508930745661002E+02   -6.2147651859658659E+01
Br    1.8896794351236798E+02   -1.6426016815501040E+02   -6.0106667162378493E+01
Br   -5.6044558869846128E+01   -1.0147264770582390E+02    6.8946745997917631E+01
Br    2.6133445461125785E+01   -2.4580335688507211E+00   -6.7575255442409116E+01
Br   -1.7019210127131487E+02    4.7094556263304689E+01    4.9736960068268260E+01
Br   -6.6623500623549134E+01    3.8789102546335180E+01    5.1123039263433206E+01
Br   -1.5520564471616305E+02    2.2771800307336812E+02    3.7491636243344558E+01
Br    1.1743355345255640E+01    1.4409255805412008E+02    2.4780628328447673E+01
Br   -1.6343410535870626E+02    1.4053722064126913E+02    1.3066434031340080E+02
Br    1.7046761137928900E+02   -1.8204859112755304E+02   -8.2899584413336811E+01
Br    2.3558227091329047E+02   -1.6379695343459039E+02   -4.5018754727641927E+01
Br    1.0848558739212466E+02   -1.5728959870541433E+02    9.2139354354404848E+00
Br    1.3358693326226469E+02   -4.2472881346010439E+01   -6.1211743315333166E+01
Br    4.8462984163995522E+01   -4.8796923151563121E+01   -3.1609283119705022E+01
Br    1.1372309945340920E+01    3.7817051820067384E+01    1.2160036036402973E+02