 # Version information for this restart file 
 # current date 2020-12-23 15:02:30.464
 # current working dir /Users/bvanbeek/Downloads/MM_MD_workdir/md
 # Program compiled at                             Fri Apr 19 11:24:34 CEST 2019
 # Program compiled on                                             192.168.1.124
 # Program compiled for                           Darwin-IntelMacintosh-gfortran
 # Source code revision number                                         svn:18464
 &GLOBAL
   PRINT_LEVEL  LOW
   PROJECT_NAME cp2k
   RUN_TYPE  MD
 &END GLOBAL
 &MOTION
   &MD
     ENSEMBLE  NPT_F
     STEPS  10000
     TIMESTEP     2.4999999999999996E+00
     STEP_START_VAL  9960
     TIME_START_VAL     2.4899999999995522E+04
     ECONS_START_VAL    -5.5495911227455137E+00
     TEMPERATURE     3.0000000000000000E+02
     &BAROSTAT
       PRESSURE     1.0100000000000000E+00
       TIMECON     4.9999999999999994E+02
       &VELOCITY
            -1.0932467117763056E-06    1.4634003030019803E-06    3.5612711518684033E-06    1.4634003030019797E-06 \
            -3.2916679816887280E-06    2.6932474920746535E-06    3.5612711518684046E-06    2.6932474920745976E-06    3.2788279782682506E-06
       &END VELOCITY
       &MASS
             2.1920353963970435E+08    2.1920353963970435E+08    2.1920353963970435E+08    2.1920353963970435E+08 \
             2.1920353963970435E+08    2.1920353963970435E+08    2.1920353963970435E+08    2.1920353963970435E+08    2.1920353963970435E+08
       &END MASS
       &THERMOSTAT
         TYPE  CSVR
         &CSVR
           TIMECON     9.6755373060191392E+00
           &THERMOSTAT_ENERGY
                 3.8070367130432115E-01
           &END THERMOSTAT_ENERGY
           &RNG_INIT
Wiener process for Thermostat # 1        1 F T F  -2.2200418456197895E+00         284600810.0        1265525653.0        3234264254.0        3927898201.0        4017516751.0        1150118617.0             12345.0             12345.0             12345.0             12345.0             12345.0             12345.0             12345.0             12345.0             12345.0             12345.0             12345.0             12345.0
           &END RNG_INIT
         &END CSVR
       &END THERMOSTAT
     &END BAROSTAT
     &THERMOSTAT
       TYPE  CSVR
       &CSVR
         TIMECON     4.9999999999999994E+02
         &THERMOSTAT_ENERGY
              -3.8389305904455147E+00
         &END THERMOSTAT_ENERGY
         &RNG_INIT
Wiener process for Thermostat # 1        1 F T F  -1.2867817923595410E+00         927988398.0         903235624.0         593059318.0        3600036072.0         170402724.0         490837251.0             12345.0             12345.0             12345.0             12345.0             12345.0             12345.0             12345.0             12345.0             12345.0             12345.0             12345.0             12345.0
         &END RNG_INIT
       &END CSVR
       &PRINT
         &TEMPERATURE  ON
           FILENAME 
           &EACH
             MD  10
           &END EACH
         &END TEMPERATURE
       &END PRINT
     &END THERMOSTAT
     &AVERAGES  T
       &RESTART_AVERAGES
         ITIMES_START  1
         AVECPU     2.8809617871575613E-02
         AVEHUGONIOT     0.0000000000000000E+00
         AVETEMP_BARO     7.9844272693889616E+02
         AVEPOT    -4.2115588043243646E+00
         AVEKIN     6.8868112812926607E-01
         AVETEMP     2.6897716852494614E+02
         AVEKIN_QM     0.0000000000000000E+00
         AVETEMP_QM     0.0000000000000000E+00
         AVEVOL     5.7204775727758966E+07
         AVECELL_A     4.0312789309239690E+02
         AVECELL_B     4.0683788449388027E+02
         AVECELL_C     2.0168671059856979E+02
         AVEALPHA     6.9592529528790763E+01
         AVEBETA     1.1328153790537235E+02
         AVEGAMMA     1.0918228972741386E+02
         AVE_ECONS    -1.4351338468128356E+00
         AVE_PRESS     2.8600410751521599E+00
         AVE_PXX     2.4743812280853237E+00
       &END RESTART_AVERAGES
     &END AVERAGES
   &END MD
   &PRINT
     &TRAJECTORY  ON
       &EACH
         MD  10
       &END EACH
     &END TRAJECTORY
     &CELL  ON
       FILENAME 
       &EACH
         MD  10
       &END EACH
     &END CELL
     &FORCES  ON
       FILENAME 
       &EACH
         MD  10
       &END EACH
     &END FORCES
   &END PRINT
 &END MOTION
 &FORCE_EVAL
   METHOD  FIST
   STRESS_TENSOR  ANALYTICAL
   &MM
     &FORCEFIELD
       VDW_SCALE14     1.0000000000000000E+00
       EI_SCALE14     1.0000000000000000E+00
       SHIFT_CUTOFF  T
       DO_NONBONDED  T
       IGNORE_MISSING_CRITICAL_PARAMS  T
       &SPLINE
         R0_NB     1.0000000000000001E-01
       &END SPLINE
       &NONBONDED
         &LENNARD-JONES
           ATOMS Cs Cs
           EPSILON     2.2644852172126850E+01
           SIGMA     5.8500000000000005E+00
         &END LENNARD-JONES
         &LENNARD-JONES
           ATOMS Cs Pb
           EPSILON     8.6920055954630953E+01
           SIGMA     5.1000000000000005E+00
         &END LENNARD-JONES
         &LENNARD-JONES
           ATOMS Br Pb
           EPSILON     2.0528187276773045E+02
           SIGMA     2.9000000000000004E+00
         &END LENNARD-JONES
         &LENNARD-JONES
           ATOMS Br Cs
           EPSILON     5.3481070753900497E+01
           SIGMA     3.8500000000000005E+00
         &END LENNARD-JONES
         &LENNARD-JONES
           ATOMS Br Br
           EPSILON     1.2630795322675199E+02
           SIGMA     4.2599999999999998E+00
         &END LENNARD-JONES
         &LENNARD-JONES
           ATOMS Pb Pb
           EPSILON     3.3363415533600221E+02
           SIGMA     5.9800000000000004E+00
         &END LENNARD-JONES
       &END NONBONDED
       &CHARGE
         ATOM Cs
         CHARGE     2.0000000000000001E-01
       &END CHARGE
       &CHARGE
         ATOM Pb
         CHARGE     4.0000000000000002E-01
       &END CHARGE
       &CHARGE
         ATOM Br
         CHARGE    -2.0000000000000001E-01
       &END CHARGE
     &END FORCEFIELD
     &POISSON
       PERIODIC  XYZ
       &EWALD
         EWALD_TYPE  SPME
         GMAX  22
         O_SPLINE  4
       &END EWALD
     &END POISSON
     &PRINT
       &FF_INFO  LOW
         SPLINE_INFO  F
         SPLINE_DATA  F
       &END FF_INFO
     &END PRINT
   &END MM
   &SUBSYS
     &CELL
       A     4.3854727904511554E+02   -1.6480220137945111E+02   -9.5810282181545944E+01
       B    -1.8270195360514737E+02    4.3966425856366840E+02    8.7671717691210475E+01
       C    -1.0457665928622609E+02    8.3544210309426262E+01    1.7906691356801093E+02
       PERIODIC  XYZ
       MULTIPLE_UNIT_CELL  1 1 1
     &END CELL
     &COORD
Br   -2.2172337635081891E+02    2.3023110063769866E+02    1.1271493148425499E+02
Br   -2.5602008673527047E+02    2.5044495326193612E+02    1.5577009858786025E+02
Br    3.9355366335994304E+01   -1.5566601428803617E+02   -3.9007213101820192E+01
Br   -7.5140538015601948E+01   -1.6845266059643443E+01    4.7060881303010106E+01
Br    8.0447553327508288E+01   -1.2036788132176170E+02   -1.3770905383247193E+01
Br    3.4194610401516265E+01   -2.4853344808669615E+01   -5.2130722636072598E+01
Br   -1.4541029950827689E-01    3.4038311844568390E+00   -1.9718938428289324E+01
Br   -1.2869982802029947E+01    1.4830209523443362E+01    4.1799343478115475E+01
Br   -7.4470281704662781E+01    1.3461487204679690E+02    3.6041389473318780E+01
Br   -7.4397997676455532E+01    1.6804077442075439E+02    7.0130066504227855E+01
Br   -9.3269497889482167E+01    1.7621450828055040E+02    9.2535951621836418E+01
Br    1.8153967335530399E+02   -1.7976130097882702E+02   -1.2092254759724106E+02
Br    1.4820842482876688E+02   -7.1747655059291688E+01   -2.6620435404563167E+01
Br    1.9485162391293116E+02   -1.3654161317832842E+02   -2.1803087056014892E+01
Br    1.5352151940070200E+02   -1.0473331215495772E+02   -2.8540017030463996E+01
Br    1.3409080438076643E+02   -3.9502772184199415E+01   -1.2139893009828979E+01
Br    6.1147987323301564E+01    1.0372076627499590E+01   -2.1791543666060807E+01
Br    7.0794171989367669E+01    1.6869699990398345E+02   -1.0338742210277399E+01
Br    1.5095224710311470E+02    1.3492319752229574E+02   -1.8674363087699181E+01
Br    1.2911366280480420E+01    1.1116021453744743E+02    2.7533789543701811E+01
Pb   -1.6335225176347424E+02   -6.1799095811343037E+01   -4.6456918571515367E+01
Pb   -8.5636660515442571E+01   -1.0973291658182805E+02    2.7372893873027049E+01
Pb   -2.0286710542346847E+02   -1.3310164334022760E+01    6.9925965373842530E+01
Pb   -6.7039261101129597E+01   -1.3434469953114638E+02   -1.1889721668765634E+02
Pb   -2.2780309646942081E+02    8.9263552294118938E+01    2.5712355837152529E+01
Pb   -1.5155209051746419E+02    3.6423538594666276E+01    3.8215103972930329E+01
Pb   -3.0037080007963078E+02    1.5327936304400129E+02   -9.3565457990142527E+00
Pb   -2.4600542606265557E+02    2.2205832731835775E+02    3.0886224940286972E+01
Pb   -2.2833251292653298E+02    2.0389930437551118E+02    8.7566106888892477E+01
Pb    4.1338139335507094E+01   -1.6116417140535347E+02   -7.5465443980176005E+01
Pb   -1.5435060243623930E+00   -1.2727091623252258E+02   -1.4214605439675077E+01
Pb   -6.8830436605630339E+01   -9.5021261157635635E+01    4.4343333237157356E+00
Pb    3.9267206168255328E+01   -4.4111315556516828E+01   -1.3538288356819984E+02
Pb   -4.3946476086921841E+01    2.3475222168163693E+01   -6.7223122850898092E+00
Pb   -1.4895128139189060E+02    6.2920445752004277E+01    3.2746728093004656E+01
Pb   -9.9251953763430123E+01    1.2733367566542270E+02   -1.6824221227657944E+01
Pb   -1.1398510176469058E+02    2.7221282737989418E+02    4.2450011037354088E+01
Pb   -2.0680002146482855E+02    2.5338472174746218E+02    1.2214767061522802E+02
Pb    1.9276170311607723E+02   -2.7204260444963870E+02   -1.6954502812482079E+02
Pb    1.6499636398518263E+02   -2.0160550470243172E+02   -8.8041021506611045E+01
Pb    1.7856419523598967E+02   -1.6310473756677570E+02   -3.7535630327923712E+01
Pb    1.1597695958099224E+02   -6.1835326567686472E+01   -3.8530621718848899E+01
Pb    1.5872227064364552E+02   -7.4746970359550076E+01   -4.7509591184981446E+01
Pb   -7.7350851011595738E+00    1.6769134065003868E+01    2.2980845942064247E+00
Pb    5.4367418685422997E+01    1.2297533851364068E+02   -5.7079766371542782E+01
Pb    3.5989779268730095E+00    1.4297729083858792E+02   -2.7805116549420315E+01
Pb    1.3273237925452481E+01    1.1324939928746990E+02    3.5514426604050868E+01
Pb   -1.3302453341175180E+02   -9.8774011277900726E+01   -3.7571152150002199E+01
Pb   -8.7795076574774910E+01   -1.1293038889781042E+02    6.6079359991752651E-01
Pb   -8.7732062045076432E+01   -6.1172442980985998E+01    8.7375422630887442E+01
Pb   -1.3701187767312658E+02    1.3689925933483549E+01   -4.4313834331528646E+01
Pb   -1.2661936831809625E+02    3.9292185972069987E+01    2.4397245287627829E+01
Pb   -1.0423962217821057E+02   -1.8568762034754652E+01    5.5866681620956889E+01
Pb   -1.4482896585208644E+02    1.6657420700042334E+02   -2.4871224565173545E+01
Pb   -2.1659706312771047E+02    2.2009104084794751E+02    1.1366311609365424E+02
Pb   -2.6309574249985451E+02    2.5053708451741895E+02    9.7256539174469026E+01
Pb    6.0405602562280826E+01   -1.5900978200868641E+02   -5.7391805616528039E+01
Pb    1.9030066415519264E+02   -1.8085477028095852E+02   -6.2888338341249742E+01
Pb    1.0238731788134139E+02   -1.4468014070876225E+02    1.1738750257182726E+01
Pb    1.9320851058384928E+01    7.3571571644683786E-01   -8.6010653839224005E+01
Pb    3.2460531009019458E+00    6.6572460088155818E+00   -1.9710910330939811E+01
Pb   -1.3875600362366280E+01    1.2336484753217436E+01    4.2868548809715058E+01
Pb   -7.3934349675204487E+01    1.4040358834836658E+02    3.6027993951165172E+01
Pb    5.9539469671711513E+00    1.4941638450806639E+02    4.1494275455054634E+01
Pb   -9.3124045457513049E+01    1.7338947331919059E+02    9.0075582152495315E+01
Pb    1.7179235181036913E+02   -1.9750122540108424E+02   -9.7279613786659212E+01
Pb    2.2845446962814975E+02   -1.7403883289540354E+02   -2.9344604163863714E+01
Pb    1.7974144185106533E+02   -1.7702137663472180E+02   -2.5310868794160498E+01
Pb    1.8018164881849441E+02   -8.9571008748348163E+01   -7.3158592313393086E+01
Pb    1.8723309014079499E+02   -8.2715155350105320E+01   -5.1293549309904691E+01
Pb    2.2602496296337492E+01    3.4681702781723661E-01    2.5969492112144067E+01
Pb    5.6471663869179523E+01    1.1618915624178639E+02   -5.1236471771677223E+01
Pb    1.8360123543343650E+02    5.5398226094426612E+01   -3.1168098954736635E+01
Pb   -3.3519167083687300E+00    1.2268108177538700E+02    2.3080330991498069E+01
Pb   -9.7909170020838175E+01   -1.7320201713323107E+02   -1.0384715118016797E+02
Pb   -1.1791185004011484E+02   -1.1399148609347297E+02   -1.0847900457017365E-01
Pb   -6.7131833556137380E+01   -2.1133441829899058E+02    4.1342270813254089E+01
Pb   -1.3538218858075439E+02   -4.0506238521793740E+01   -8.8908663475815956E+01
Pb   -2.2667924386686926E+02    3.7297030486005340E+01    1.5159019731788751E+01
Pb   -1.7941834757644054E+02   -5.5288673322524922E+00    4.2989592289981928E+01
Pb   -3.2423072322341233E+02    1.3958208466532341E+02   -1.4054675342321798E-01
Pb   -2.5919961623028843E+02    1.2851304789213611E+02    7.5408711392982340E+01
Pb   -2.5664043350744976E+02    1.6867517845661328E+02    6.5243672304201723E+01
Pb    5.2066623802140150E+01   -2.3481904625955391E+02   -9.7287254398149912E+01
Pb    7.5801395473810516E+00   -1.5605663060978580E+02   -6.8007059341637060E+01
Pb   -4.4045866320303304E+01   -1.4145412271658324E+02    7.5661321177894321E+00
Pb   -2.4685361963009115E+01   -9.1203647880889690E+01   -9.3168653274650751E+01
Pb   -4.3247641729833539E+01   -4.7219906500583242E+01   -3.5452161326862615E+01
Pb   -6.5658098312289752E+01   -3.2659976462921144E+01    2.9572775919370951E+01
Pb   -4.4736640930844601E+01    5.6970975895990513E+01   -4.2126769549827401E+01
Pb   -4.1397748182713357E+01    3.7176080781767084E+01   -1.7793712426421926E+01
Pb   -1.2163782276803718E+02    1.7386673082900717E+02    1.1675680857791858E+02
Pb    2.2582541233332250E+02   -3.1071310515251503E+02   -1.7205368936751898E+02
Pb    4.7946123490253534E+01   -2.0446140028303182E+02   -5.3797624751752117E+01
Pb    1.8083300041615311E+02   -1.8531666551855517E+02   -3.2100150232841536E+01
Pb    1.0990874296456018E+02   -7.9289837758009725E+01   -1.4964517889189145E+02
Pb    6.6684624499172116E+01   -5.5073868879816523E+01   -3.5057048385477991E+01
Pb    1.3154235019758414E+02   -9.8173713826293294E+01   -2.1175012481759047E+01
Pb    1.3873762403034604E+02   -1.9360335719769537E+01   -9.4771584088127810E+01
Pb    8.9955416265411415E+01    9.8984413514516856E+00   -5.2101872639739923E+00
Pb    5.4056690994756046E+01    4.7820010744205836E+00   -1.5212496985287521E+01
Pb   -1.0969979847988294E+02   -8.9831906456938171E+01   -7.5231895848747030E+01
Pb   -4.2627883598703198E+00   -1.7231164176858113E+02   -3.3794680229514078E+01
Pb   -8.4811662618202462E+01   -1.7868609358291479E+02    8.1064350754950723E+01
Pb   -5.5733250623003720E+01   -8.1994628186438121E+01   -9.4524484663685868E+01
Pb   -1.1312028696388927E+02   -5.2888455659413872E+01   -1.0486368770229660E+01
Pb   -1.4471816922103864E+02   -2.3536693690536513E+01    9.3893819127996593E+01
Pb   -5.0674806859999244E+01    7.9714277567511175E+01   -2.6721308282754386E+01
Pb   -1.6134153247810085E+02    9.8284767255826111E+01    5.2140002459973303E+01
Pb   -1.7620084312882474E+02    1.5077094949335805E+02    1.3721114100226697E+02
Pb    2.4919155436785363E+01   -1.5742710674571620E+02   -8.9052438210761110E+01
Pb    4.8372333788338416E+01   -2.2123376983087630E+02   -5.8558956868374715E+01
Pb    9.5187357823363683E+01   -2.4164086285482969E+02    3.5252033187691723E+01
Pb    1.1577101906773832E+01   -1.3146714454931299E+02   -1.0597240728511670E+02
Pb   -4.1131379028159785E+01   -2.4465882155529549E+01    2.3172179229010485E+01
Pb    5.8937449577907934E+01   -8.8972848244444407E+01    1.3255372173378062E+01
Pb    4.6034365929751068E+01    6.6692495470132002E+01   -6.0181054366068480E+01
Pb    2.3204520518474077E+01   -1.0996167911547692E+01    4.6839603584684131E+00
Pb   -8.6514189200906713E+01    1.3265556588186075E+02    8.4825140798614783E+01
Pb    2.6152274198649326E+02   -2.9391173048899259E+02   -1.1199673774499477E+02
Pb    1.7221306279314410E+02   -2.7585364045270302E+02   -2.6977891521858492E+01
Pb    1.8882577035913911E+02   -2.7215556947618046E+02   -8.3022086911027504E+00
Pb    2.3939477916308732E+02   -1.3165943122740359E+02   -1.0070588439996068E+02
Pb    1.4393333396830229E+02   -6.9053482770684070E+01   -2.5254740040132628E+01
Pb    8.5457386132646718E+01   -5.7143255208368281E+01    4.2443961409651109E+01
Pb    1.1595695790463938E+02   -6.3714341160006164E+01   -6.3360322191688731E+01
Pb    1.2637427082971843E+02   -3.7905082173045905E+01   -3.2718405920862942E+01
Pb    8.9152362087414794E+00    1.0783364418318438E+02    8.3041141049198671E+01
Cs   -1.5982291755510184E+01   -2.0825403912705627E+02   -1.0570947453656514E+02
Cs   -4.6416237606717011E+01   -8.1954827029299949E+01   -9.9429101430672091E+00
Cs   -1.2308478490784961E+02   -6.0404430360994930E+00    6.7300042766863029E+01
Cs   -1.9000206378046578E+01    3.4356424445069806E+01   -7.8604581311932805E+01
Cs   -1.1964784952254622E+01   -5.2855945649063067E+01   -6.6333849115281581E+01
Cs   -1.4298377039020525E+02   -1.0946089173756894E+01    4.9727079677464111E+01
Cs   -8.1908789304488423E+01    4.5703601753750554E+01   -4.4476681128900658E+01
Cs   -1.3490139442541050E+02    1.2796527542512841E+02   -1.2928283944012611E+01
Cs   -2.1933823379992364E+02    1.9860750821622952E+02    2.5418280322751087E+01
Cs    1.9104258271850929E+02   -2.9057333594672423E+02   -1.4274724257849272E+02
Cs   -1.3163890754951324E-01   -1.7309461047259575E+02   -4.8044679070509289E+01
Cs    1.5876245342484708E+02   -1.8365255087120252E+02   -5.2282741066222357E+01
Cs    5.8333396399444034E+01   -3.5336390246440963E+01   -8.2376767255253668E+01
Cs   -1.4198088823096754E+01   -8.5989756201931353E+00   -4.1214119877800677E+00
Cs   -1.0320759934347816E+01    1.6396079651861086E+01    7.4352361051306559E+01
Cs    1.0015668083331766E+01    7.8731396090725568E+01   -8.7977573373561100E+01
Cs   -2.4887530969380858E+01    1.3237836761498261E+02    1.1760459313079981E+01
Cs   -1.0395881974668148E+02    1.1469512761881366E+02    4.9673395067935154E+01
Cs    2.4314220928913520E+02   -2.8522219421727016E+02   -1.9369991658895034E+02
Cs    1.5827912690242670E+02   -2.3189158795578524E+02   -1.1853146453026233E+02
Cs    2.1195841141940832E+02   -3.2669645900273093E+02   -9.1816829419705087E+01
Cs    1.5465466016132874E+02   -7.4061716566761831E+01   -8.4199085225040818E+01
Cs    2.0598604482441269E+02   -1.0752320583685764E+02   -5.1874336286739187E+01
Cs    1.3442300249579986E+02   -9.0126486612570559E+01   -4.5489587749467006E+01
Cs    1.2340264087401953E+02    3.2710023394015863E+01    8.5100045113023572E+00
Cs    1.5799874480685355E+02    3.3025135983074279E+01    7.2912545800908632E+01
Cs    1.8861192366896169E+01    1.1856328216622919E+02    4.2239376737061818E+01
Cs    1.4489633513342532E+01   -7.5388951837376382E+01   -8.3337123047392339E+01
Cs    6.8853001669173835E+01   -6.3802164727351425E+01   -2.5004262026630741E+01
Cs   -4.5277990021532851E+01   -1.0698435775656891E+02    8.6976174114104495E+01
Cs   -1.2102403820892636E+02    2.0350619073974073E+01   -1.0934635329060345E+01
Cs   -1.1069026969309074E+02    1.4597357104523275E+02    7.2280469331843051E+01
Cs   -1.1176580988211063E+02    3.1774403384868492E+01    6.6640752138344396E+01
Cs   -1.2161748758373884E+02    2.1694673364076181E+02    8.1984382952548929E-01
Cs   -9.9562121358568277E+01    1.9899940419912360E+02    9.7123929682538332E+01
Cs   -1.4771309620471041E+02    3.0799723939093059E+02    1.2348469357982479E+02
Cs    2.1632179645953053E+02   -1.2792941655069492E+02   -9.3636069591270697E+01
Cs    1.3348292918370194E+02   -7.6479988734939923E+01   -3.4219488416116008E+01
Cs    7.3913744589293586E+01   -1.2402499805378785E+02   -1.2108748303091126E+01
Cs    6.5869272274897412E+01    5.1905279106395710E+01   -5.5865915236358113E+01
Cs    8.1236110434999063E+01   -5.3177556031459197E+01   -2.6486490857862513E+01
Cs   -2.1871109104709703E+01    8.8138461145667975E+01    4.7485463395033882E+01
Cs   -9.2901471278228822E+00    1.5632187338205040E+02   -4.3073674723690218E+01
Cs    3.9560466442272393E+01    1.6470695156591731E+02   -5.3328475281385600E+01
Cs   -1.5247419614101450E+01    2.3071003706431151E+02    4.8444975610484285E+01
Cs    2.5573050087097408E+02   -1.2516803529826828E+02   -8.9468000241521253E+01
Cs    3.3653121738416769E+02   -2.2317797379175721E+02   -1.2866233384980362E+02
Cs    1.5002085168772817E+02   -1.1682259292911458E+02    3.1255157635235609E+01
Cs    2.4010076964336830E+02   -1.4710185197930161E+02   -8.6726010958390106E+01
Cs    2.1333265418292217E+02   -8.5483156977732548E+01   -1.0744404028478540E+02
Cs    2.8083699253200695E+02   -9.2828420004344110E+01    5.3475754947559153E+00
Cs    1.4855663688759898E+02    6.9757003208557762E+01   -5.4208432342153138E+01
Cs    1.5992307231170932E+02    1.1833542180933945E+02   -1.4840521822686792E+01
Cs    1.6115171807935130E+02    9.1577485691747029E+01    3.2984047283126806E+01
Cs   -3.8687104644410830E+01   -9.3386010547346913E+01   -9.8492536551689284E+01
Cs   -1.3027477190465123E+02   -1.6171253624186527E+01   -1.5103760735644453E+01
Cs   -1.6069804432641510E+02    1.2111742964062197E+01    1.1389388331644577E+02
Cs   -5.6986153707387153E+01    6.2502146872330911E+01   -1.7858112797640862E+00
Cs   -1.9134431541847837E+02    7.0133334345208823E+01   -7.0067143014502564E+00
Cs   -1.2911563750788051E+02    3.0383818610130611E+00    1.0448949858233837E+02
Cs   -1.7340568666788263E+02    2.5685100225239268E+02    2.0000209386823233E+01
Cs   -2.1504731471541530E+02    2.3457389282900445E+02    8.4420221288222734E+01
Cs   -3.8751306432753870E+02    2.5194042962587497E+02    1.5764141261798136E+02
Cs    8.5246527366849421E+01   -7.7118007622277744E+01   -1.3299609406225159E+02
Cs    5.1795374791423949E+00   -7.3025825391661698E+01    9.2350307412380310E+00
Cs    4.6208327545838721E+01   -3.6660226000074537E+01    2.5696567067001727E+01
Cs    1.2239467078782029E+01   -1.1024126471562433E+01   -4.6927839387530049E+01
Cs   -5.8063692755156182E-01    2.8423175287108513E+01    1.2546776311407662E+01
Cs   -7.6728976729990762E+01    6.9023673298498650E+01    6.9125042093643728E+01
Cs   -6.6061592261613796E+01    1.5156705994917047E+02    3.2166864364033444E+01
Cs   -4.3199061727510056E+01    1.5039151125943832E+02    5.5062157803446262E+01
Cs   -1.5281585622846876E+02    1.7878584980136694E+02    1.6680661517064533E+02
Cs    1.8543263065761266E+02   -1.7505876472890264E+02   -9.6398877172566756E+01
Cs    2.1764154579321055E+02   -1.4680360871184760E+02   -2.9092435355696505E+01
Cs    1.8918723160476634E+02   -1.2418210788696094E+02    1.9028876074083083E+01
Cs    2.1172668894107611E+02   -6.2668367203495137E+01   -3.1583071828000374E+01
Cs    1.8714404094214871E+01    1.5895335024047464E+01    3.7030961217452656E+01
Cs    2.2868942523886457E+01    7.5946385574851519E+01    7.4414040406469255E+01
Cs    1.5858428812172139E+02    1.1476561065392028E+02   -2.2296241979453363E+01
Cs   -1.3145671677773441E+01    1.6948488791972417E+02    3.9618540839181435E+01
Cs    1.3066420272440190E+01    1.8380101126596168E+02    7.6333650916332843E+01
Cs   -1.3467033293635055E+02   -1.1337694007157445E+02   -4.9309548855953807E+01
Cs   -6.7046249597977237E+01   -1.6396902303233080E+02    8.0473991799001766E+01
Cs   -2.3385876612381594E+02    1.7890002629346409E+01    1.0259614558322897E+02
Cs   -2.3159505868524244E+02    2.3580089085775207E+01   -5.7949901160408984E+01
Cs   -2.1166140626321857E+02    4.7294796648760034E+01    5.9947837683809425E+01
Cs   -1.7295414443206323E+02    1.2092828074252326E+01    8.2445858632398966E+01
Cs   -2.1078408617659863E+02    2.2907378486469358E+02    4.3405996806180404E+01
Cs   -1.4617483212055890E+02    2.5624109954711309E+02    4.1074695948761189E+01
Cs   -1.9731991270782453E+02    1.7125253489461306E+02    1.4164549167099472E+02
Cs    1.7814562163239348E+01   -1.4046332111973155E+02   -6.3469122566304584E+01
Cs   -4.8113588563079247E+01   -1.5323903331776773E+02   -2.9067172001978747E+01
Cs    4.0835425671243435E+01   -1.8015455426232410E+02   -2.2873571652813023E+01
Cs    2.1773619484651086E+01   -4.8224168526115186E+01   -1.6210790571370087E+01
Cs   -6.7632970420637278E+01   -4.0437243577269534E+01    2.5265700926570696E+00
Cs   -6.1127533634748907E+01   -5.5872544324543590E+01   -5.5925358521887700E+00
Cs    1.6743431873947522E+01    6.2931602241846058E+01   -5.4445261264508567E+01
Cs   -3.5847150656175550E+01    8.1137898115970060E+01   -3.1509527527187291E+01
Cs   -1.4760208802095042E+02    2.4262320272783916E+02    8.1692788025022878E+01
Cs    1.1631848915919664E+02   -2.4811575589704179E+02   -9.1040546108666504E+01
Cs    1.6207575327051211E+02   -1.7497150822832609E+02   -6.9148759597113383E+01
Cs    1.4733101129415928E+02   -1.5555929809347251E+02   -6.4099289698588224E+00
Cs    9.8301984973139540E+01   -9.3213190408162191E+01   -1.2137727402823396E+02
Cs    3.6707794175145018E+01   -5.8123904885929356E+01   -3.0267228589959934E+01
Cs    6.6858377502888953E+00    2.5976403360130384E+01    1.6714187534931387E+01
Cs    9.1625894121479675E+01    3.9573694238720954E+01   -7.5110761521077350E+01
Cs    5.2739410384651478E+01    4.0241317561653851E+01   -8.4834233752916965E+00
Cs   -3.3674054571012974E+01    1.8956029522178372E+02    1.0450715989796846E+02
Br   -1.0808051477152954E+02   -1.3848187772092075E+02   -5.5274263242443872E+01
Br   -2.0422783590402014E+02    1.7677354754333731E+01    4.6927719823116526E+01
Br   -2.0458500198704917E+02   -1.4436060431898301E+01    6.7926771910817280E+01
Br   -1.3671628863150994E+02    7.9471327902837050E+00   -4.8482157179264689E+01
Br   -1.9354810290563083E+02    7.3732639910716799E+01    1.3268903664889880E+01
Br   -1.6550282855667228E+02    1.1597048831930909E+01    2.5420363566248515E+01
Br   -1.1343587179100672E+02    1.4240746780074247E+02   -4.2032357318003735E+00
Br   -2.3225818351431428E+02    2.7507757667572588E+02    6.6264091296130502E+01
Br   -2.5986142578788804E+02    2.7159931712332570E+02    1.0919567954740091E+02
Br   -2.7879370630314099E+01   -9.5688387411422269E+01   -9.3204870208650021E+01
Br   -2.4834696498789516E+01   -8.4966528346500581E+01   -3.7589148283348287E+01
Br   -6.7528285667462484E+01   -7.1686338294049662E+01   -1.4627580690427993E+00
Br    8.1143795941455878E+01   -8.4345616304682167E+01   -1.2776345012058701E+02
Br   -8.7779844448394861E+00    1.5022320540951034E+01    9.0723666857685110E+00
Br   -2.1760281216795232E+01    1.9786036189671211E+01    4.6426395478474525E+01
Br   -8.3800012950742158E+01    1.1536645288958852E+02   -1.0491597833647873E+01
Br    4.8659341719798377E+00    1.5705245674358864E+02    2.8704657100374693E+01
Br   -1.5565080981578973E+02    2.5272396979219613E+02    8.3319866613561629E+01
Br    2.2322322200830601E+02   -1.2617299688016980E+02   -9.8299070502286526E+01
Br    1.5849376979864562E+02   -1.8176776563195477E+02   -3.7603237298317858E+01
Br    1.5612789563910675E+02   -1.5941403671889418E+02   -2.4624027290026014E+01
Br    2.0207232561840874E+02   -5.7093219498718504E+01   -5.9554765403106323E+01
Br    1.4736317595637377E+02   -5.0030359041137935E+01   -8.7567626302604680E+01
Br    1.3966243624654201E+01   -5.9869490146885607E+00    2.2864276154166177E+01
Br    5.2823334774973048E+01    1.1424209611755576E+02   -5.4376203039993200E+01
Br   -1.1477835759748627E+01    1.5440346605072611E+02   -2.0415509325293808E+01
Br   -1.3882106943832369E+02    2.1549842620419463E+02    1.1642868003821611E+02
Br   -9.4850191649524305E+01   -1.7044003670503270E+02   -1.4369203896111404E+01
Br   -6.9696133350858588E+01   -6.0978058368200145E+01   -1.3130120421007588E+01
Br   -2.5294447801847517E+02    3.1464751585873859E+01    7.5705826759107538E+01
Br   -2.4542318288616300E+02    5.4273075634382764E+01    8.7622999818924228E+01
Br   -2.6643688851806013E+02    5.3649307093156651E+01    2.4701201206078494E+01
Br   -1.9452419732620709E+02   -2.6664857512337431E+01    6.8174039088534514E+01
Br   -2.2568159870987003E+02    2.1913677910408913E+02    2.8852119513431319E+01
Br   -2.3556085427334096E+02    2.0587690835657696E+02    9.8822233412378552E+01
Br   -4.0926363547112561E+02    2.3801603785583367E+02    1.7593423063867218E+02
Br    5.0054384787817936E+00   -1.4869223479908362E+02   -8.0942466281901886E+01
Br    1.9022683770452844E+02   -1.8010636581990684E+02   -5.9893978712435704E+01
Br   -5.7898018073171876E+01   -1.0049073203398078E+02    8.9202801737692667E+01
Br    1.7556410489068416E+01    2.2797908973468322E+00   -8.4379579442412918E+01
Br   -1.8169924281130452E+02    3.8433892161756354E+01    4.8894354321265446E+01
Br   -6.6983967470771262E+01    3.9861266263868195E+01    3.8064478816151080E+01
Br   -1.5526268199838700E+02    2.4234204464622866E+02    6.6665348718121642E+00
Br    7.9410838018497119E+00    1.5416724894308391E+02    3.8289059132963587E+01
Br   -1.4697710370606691E+02    1.5528859056674344E+02    1.5323404367585755E+02
Br    1.7099537903214349E+02   -1.8447647850409916E+02   -9.3447061539772989E+01
Br    2.3663669401131958E+02   -1.7869671737728109E+02   -3.2394956794012522E+01
Br    1.1887608618644775E+02   -1.6474541150677237E+02    6.5425569963792691E+00
Br    9.9328981140075811E+01   -2.7157466900639150E+01   -6.5177118227848709E+01
Br    3.8181663327737681E+01   -3.9460529276993974E+01   -4.6946148263498351E+01
Br    1.1134197559428912E+01    3.3432284871534542E+01    1.4581705451022694E+02