 # Version information for this restart file 
 # current date 2020-12-23 15:00:14.081
 # current working dir /Users/bvanbeek/Downloads/MM_MD_workdir/md
 # Program compiled at                             Fri Apr 19 11:24:34 CEST 2019
 # Program compiled on                                             192.168.1.124
 # Program compiled for                           Darwin-IntelMacintosh-gfortran
 # Source code revision number                                         svn:18464
 &GLOBAL
   PRINT_LEVEL  LOW
   PROJECT_NAME cp2k
   RUN_TYPE  MD
 &END GLOBAL
 &MOTION
   &MD
     ENSEMBLE  NPT_F
     STEPS  10000
     TIMESTEP     2.4999999999999996E+00
     STEP_START_VAL  3500
     TIME_START_VAL     8.7499999999999727E+03
     ECONS_START_VAL    -5.5495911227455137E+00
     TEMPERATURE     3.0000000000000000E+02
     &BAROSTAT
       PRESSURE     1.0100000000000000E+00
       TIMECON     4.9999999999999994E+02
       &VELOCITY
            -1.4440973383598846E-06   -1.1410943833350337E-06    3.8824465734070476E-07   -1.1410943833348696E-06 \
             2.7738629620316828E-06    1.1917240883730118E-06    3.8824465734074742E-07    1.1917240883729656E-06   -2.2937440269235298E-06
       &END VELOCITY
       &MASS
             2.1920353963970435E+08    2.1920353963970435E+08    2.1920353963970435E+08    2.1920353963970435E+08 \
             2.1920353963970435E+08    2.1920353963970435E+08    2.1920353963970435E+08    2.1920353963970435E+08    2.1920353963970435E+08
       &END MASS
       &THERMOSTAT
         TYPE  CSVR
         &CSVR
           TIMECON     9.6755373060191392E+00
           &THERMOSTAT_ENERGY
                -2.3025277772883213E-02
           &END THERMOSTAT_ENERGY
           &RNG_INIT
Wiener process for Thermostat # 1        1 F T F  -2.1566642081348877E+00         174338175.0        4158614135.0        1752686875.0         185808421.0        2635275906.0        2384213508.0             12345.0             12345.0             12345.0             12345.0             12345.0             12345.0             12345.0             12345.0             12345.0             12345.0             12345.0             12345.0
           &END RNG_INIT
         &END CSVR
       &END THERMOSTAT
     &END BAROSTAT
     &THERMOSTAT
       TYPE  CSVR
       &CSVR
         TIMECON     4.9999999999999994E+02
         &THERMOSTAT_ENERGY
              -1.7790068972568767E+00
         &END THERMOSTAT_ENERGY
         &RNG_INIT
Wiener process for Thermostat # 1        1 F T F   1.0782360915368707E+00        1950540678.0        3806982812.0        1901139655.0        3674587304.0        1366224626.0        1732104449.0             12345.0             12345.0             12345.0             12345.0             12345.0             12345.0             12345.0             12345.0             12345.0             12345.0             12345.0             12345.0
         &END RNG_INIT
       &END CSVR
       &PRINT
         &TEMPERATURE  ON
           FILENAME 
           &EACH
             MD  10
           &END EACH
         &END TEMPERATURE
       &END PRINT
     &END THERMOSTAT
     &AVERAGES  T
       &RESTART_AVERAGES
         ITIMES_START  1
         AVECPU     4.3014554000326229E-02
         AVEHUGONIOT     0.0000000000000000E+00
         AVETEMP_BARO     2.5040930825026152E+02
         AVEPOT    -5.0444935774312496E+00
         AVEKIN     6.5922930309419958E-01
         AVETEMP     2.5747421282853890E+02
         AVEKIN_QM     0.0000000000000000E+00
         AVETEMP_QM     0.0000000000000000E+00
         AVEVOL     2.7930575059952424E+05
         AVECELL_A     5.8711055631768247E+01
         AVECELL_B     8.1901555564024804E+01
         AVECELL_C     5.7604365534045606E+01
         AVEALPHA     8.9767973188709675E+01
         AVEBETA     8.9815937431642226E+01
         AVEGAMMA     8.9090108418602668E+01
         AVE_ECONS    -1.3605190904695779E+00
         AVE_PRESS     2.2789016187782010E+00
         AVE_PXX    -3.2458555649537778E-02
       &END RESTART_AVERAGES
     &END AVERAGES
   &END MD
   &PRINT
     &TRAJECTORY  ON
       &EACH
         MD  10
       &END EACH
     &END TRAJECTORY
     &CELL  ON
       FILENAME 
       &EACH
         MD  10
       &END EACH
     &END CELL
     &FORCES  ON
       FILENAME 
       &EACH
         MD  10
       &END EACH
     &END FORCES
   &END PRINT
 &END MOTION
 &FORCE_EVAL
   METHOD  FIST
   STRESS_TENSOR  ANALYTICAL
   &MM
     &FORCEFIELD
       VDW_SCALE14     1.0000000000000000E+00
       EI_SCALE14     1.0000000000000000E+00
       SHIFT_CUTOFF  T
       DO_NONBONDED  T
       IGNORE_MISSING_CRITICAL_PARAMS  T
       &SPLINE
         R0_NB     1.0000000000000001E-01
       &END SPLINE
       &NONBONDED
         &LENNARD-JONES
           ATOMS Cs Cs
           EPSILON     2.2644852172126850E+01
           SIGMA     5.8500000000000005E+00
         &END LENNARD-JONES
         &LENNARD-JONES
           ATOMS Cs Pb
           EPSILON     8.6920055954630953E+01
           SIGMA     5.1000000000000005E+00
         &END LENNARD-JONES
         &LENNARD-JONES
           ATOMS Br Pb
           EPSILON     2.0528187276773045E+02
           SIGMA     2.9000000000000004E+00
         &END LENNARD-JONES
         &LENNARD-JONES
           ATOMS Br Cs
           EPSILON     5.3481070753900497E+01
           SIGMA     3.8500000000000005E+00
         &END LENNARD-JONES
         &LENNARD-JONES
           ATOMS Br Br
           EPSILON     1.2630795322675199E+02
           SIGMA     4.2599999999999998E+00
         &END LENNARD-JONES
         &LENNARD-JONES
           ATOMS Pb Pb
           EPSILON     3.3363415533600221E+02
           SIGMA     5.9800000000000004E+00
         &END LENNARD-JONES
       &END NONBONDED
       &CHARGE
         ATOM Cs
         CHARGE     2.0000000000000001E-01
       &END CHARGE
       &CHARGE
         ATOM Pb
         CHARGE     4.0000000000000002E-01
       &END CHARGE
       &CHARGE
         ATOM Br
         CHARGE    -2.0000000000000001E-01
       &END CHARGE
     &END FORCEFIELD
     &POISSON
       PERIODIC  XYZ
       &EWALD
         EWALD_TYPE  SPME
         GMAX  22
         O_SPLINE  4
       &END EWALD
     &END POISSON
     &PRINT
       &FF_INFO  LOW
         SPLINE_INFO  F
         SPLINE_DATA  F
       &END FF_INFO
     &END PRINT
   &END MM
   &SUBSYS
     &CELL
       A     3.6676846427983811E+01    1.9922584825027462E-01   -1.1693090613359787E-01
       B     1.2225826575891237E-01    4.8143547591119081E+01    6.3704757898996589E-01
       C    -1.6262639701301115E-01    4.2883264387330722E-01    3.2883702772705888E+01
       PERIODIC  XYZ
       MULTIPLE_UNIT_CELL  1 1 1
     &END CELL
     &COORD
Br   -1.3394926012816381E+01    1.9441814563453743E+01   -4.0875336484145947E-01
Br   -1.3438941965908722E+01    1.8428703821702531E+01    1.3116120909360273E+01
Br   -1.0308474944349573E+00   -1.3536659583210604E+01   -1.2596906845419110E+01
Br   -3.9426958265035652E+00   -1.0230482371587676E+01   -6.0519615874910242E+00
Br    1.4663815529333069E+00   -1.2003689975149181E+01    9.0174832426486624E+00
Br   -1.9203649842317616E+00   -6.7551286089036078E-01   -1.5316354908489862E+01
Br   -4.4871958705634247E+00    7.4474140111181608E+00   -1.5942413738828081E+00
Br    8.7424155112380941E-01    3.0426078437185700E+00    1.0440609715676368E+01
Br   -1.2202586478707205E+00    2.1217519998711690E+01   -9.0077514195389927E+00
Br   -4.4364760899158728E+00    1.7582626725717017E+01    4.3641733315085682E+00
Br    1.0795441848420737E+00    1.9383807173606197E+01    1.0898971335484118E+01
Br    1.1500432008955565E+01   -1.2184107384079326E+01   -1.1960233932522243E+01
Br    1.4046821628403148E+01   -1.0049009668401359E+01   -1.5551795088496345E+00
Br    1.0994521891669212E+01   -1.2276163557786276E+01    1.0009572783445019E+01
Br    1.0628163061290353E+01    4.7362529483031208E+00   -1.0479326378566563E+01
Br    1.4667510167096422E+01    3.5039920574015193E+00    1.7296043105895078E+00
Br    8.3002954097606558E+00    9.7353241754521704E+00    6.9196208142529523E+00
Br    1.3310110186497074E+01    2.1859355947010926E+01   -6.8195705918448315E+00
Br    1.7306362294739284E+01    2.0109153038365701E+01   -1.3693732324323391E+00
Br    1.5190180101912143E+01    1.7214140012560200E+01    8.3847150055662265E+00
Pb   -2.1010393451262409E+01   -1.6072972463000379E+01   -1.6563700762182851E+01
Pb   -1.8148043278017390E+01   -1.5064108497692395E+01   -3.4721760714863614E-01
Pb   -1.8909784814743887E+01   -1.6031770426030853E+01    6.3140964851021710E+00
Pb   -1.4342943898268080E+01   -3.4873387318083218E+00   -1.7341038492745803E+01
Pb   -1.8446392311143324E+01    7.7611477813999319E-01   -5.6234857669550813E+00
Pb   -1.7855846355654961E+01   -2.3514839871893063E+00    4.6109057687023922E+00
Pb   -2.2371304680627901E+01    1.2430803168207968E+01   -1.4959793103131206E+01
Pb   -1.8247410052754205E+01    1.8868884579686174E+01   -4.2644354944720071E+00
Pb   -1.6039496372507259E+01    1.4848693435196932E+01    4.5473270641855317E+00
Pb   -6.9677687406371165E+00   -1.7875493930872437E+01   -1.5937773111752396E+01
Pb   -5.4678832307108589E+00   -1.4891181529086516E+01   -6.0631653018376044E+00
Pb   -7.1879893215306003E+00   -1.5231055055935656E+01    6.1635198185568711E+00
Pb   -4.5827307893767459E+00   -3.8373331550329798E-01   -1.7050177268834823E+01
Pb   -7.2225441847595038E+00    7.2380254050771553E-01   -7.2763531100722627E+00
Pb   -9.3663381562818238E+00    1.6410946146242802E+00    3.9186731099690886E+00
Pb   -6.5607616635650619E+00    1.4798681814768456E+01   -1.4976987770225810E+01
Pb   -5.1097001364679215E+00    1.7998548112608567E+01   -2.8818039036532155E+00
Pb   -7.2562304783796563E+00    1.5815345616303327E+01    9.0686913090852084E+00
Pb    6.9210685909990746E+00   -1.7269835131700425E+01   -1.6928837245125802E+01
Pb    5.7573032332935306E+00   -1.5533363057859127E+01   -7.5815783790617530E+00
Pb    7.9532751899677754E+00   -1.6570563053753034E+01    5.4489494642931131E+00
Pb    6.0875686438896546E+00   -5.2824662147841595E-01   -1.3022156153726403E+01
Pb    9.0325119810209955E+00   -2.0755499136508349E-01   -3.6595432730570630E+00
Pb    4.0727697435012313E+00    7.6969473877144734E-01    3.7334491474755547E+00
Pb    6.0542345204254113E+00    1.7458921553855557E+01   -1.7971956247853814E+01
Pb    6.2407350171093352E+00    1.5840726462839172E+01   -7.1180602002618496E+00
Pb    5.8415297574478329E+00    1.3440356764484426E+01    3.8089984758580102E+00
Pb   -1.6365759545889709E+01   -1.7590086550280326E+01   -1.1874753135868319E+01
Pb   -1.2422280306908513E+01   -1.6850475328610930E+01    2.1969999771638719E-02
Pb   -9.8429231284236032E+00   -1.3877060230566785E+01    1.1558424581368579E+01
Pb   -1.2327959303123858E+01   -2.9360342810033293E+00   -1.0958619523646641E+01
Pb   -1.1269291819823108E+01   -9.0433115153790145E-01   -2.4083101133432439E+00
Pb   -9.2070857393278800E+00   -2.6504594816518514E+00    1.0956279491641936E+01
Pb   -1.0724905377591694E+01    1.8694396185163601E+01   -1.1775901349421991E+01
Pb   -1.0630586348569812E+01    1.7935792809234638E+01   -6.6952773726784182E-02
Pb   -1.4894350065875399E+01    1.5270398832244778E+01    1.0806818717336872E+01
Pb   -1.0634815611501236E+00   -1.6483344747683116E+01   -1.1194804330357220E+01
Pb    2.6655120902645453E+00   -1.5333871761038592E+01    3.0930123208872518E+00
Pb    2.5710254370320142E+00   -1.5447912940526017E+01    9.7234085103362329E+00
Pb   -3.0855197074260171E-01    6.8184204891528288E-01   -1.2400627541420214E+01
Pb   -1.5430838620780267E+00    4.4220663941505070E+00   -7.8189422318949731E-01
Pb   -5.5805613460982795E-01    7.4005104052808579E-01    8.9620952945826460E+00
Pb   -3.8376011480373312E-01    1.8085724585454482E+01   -1.0677196558072231E+01
Pb    2.3089412838402805E+00    1.6470315885771932E+01   -8.6464179747135295E-01
Pb   -4.9834434028642738E-01    1.5615742498387613E+01    9.0394228883368228E+00
Pb    1.1156876938632141E+01   -1.5976970986642453E+01   -1.0809492091656102E+01
Pb    1.2613152282601066E+01   -1.7652046033571121E+01    6.4849523355065097E-01
Pb    1.1245942626229771E+01   -1.5067058476365458E+01    1.1005718008109476E+01
Pb    1.1328785268126053E+01    4.7674089697240046E-01   -9.5388586238953366E+00
Pb    1.5239567367937253E+01   -1.0614471323240546E+00   -1.3538541274597879E-01
Pb    7.9017468502228603E+00    2.2921807175590176E+00    1.0021601720529745E+01
Pb    1.2772525519425001E+01    1.8464698123236566E+01   -8.5104974272735934E+00
Pb    1.6368951544756193E+01    1.4528197598474485E+01   -9.7539100202988338E-02
Pb    1.1191208840000709E+01    1.5566763366050541E+01    9.1434941713783680E+00
Pb   -1.9739907823973660E+01   -2.7711851126122461E+01   -1.5978545720455410E+01
Pb   -1.8496940357976030E+01   -2.3253209176956645E+01   -2.7327911301958498E+00
Pb   -1.6385060442461302E+01   -2.5421063820400992E+01    6.7234654295215961E+00
Pb   -1.7956411829588884E+01   -9.9284086904546651E+00   -1.9191673149470812E+01
Pb   -1.8500429050823463E+01   -5.1252430673576450E+00   -8.1830844683075554E+00
Pb   -1.6112556690237373E+01   -1.0112161336195427E+01    4.0445787234679136E+00
Pb   -2.1044197580309689E+01    5.5278225270349077E+00   -1.3545429433588502E+01
Pb   -1.7716161687270631E+01    6.8451849382231940E+00   -2.6624541372238988E+00
Pb   -1.8426370975424309E+01    7.9284243524423266E+00    4.7426106642258548E+00
Pb   -6.6739211513996128E+00   -2.5649397450261116E+01   -1.5763208396294255E+01
Pb   -7.2201112764217275E+00   -2.1602783407168296E+01   -6.6028649534425350E+00
Pb   -6.9106542891066089E+00   -2.2012050400603645E+01    4.0947166267151625E+00
Pb   -7.9293978073182494E+00   -9.6644726716648659E+00   -1.5308168516677444E+01
Pb   -7.1638155066958902E+00   -9.4614860294525869E+00   -3.5487553054601966E+00
Pb   -5.5765329642982024E+00   -6.5031169571600653E+00    3.8367067721951083E+00
Pb   -5.1591967601491131E+00    7.5700929382685835E+00   -1.5254406521882895E+01
Pb   -3.3616793900994031E+00    5.5308360410290804E+00   -8.5040841220588064E+00
Pb   -5.6637246705326962E+00    7.7615836892375523E+00    8.1245888834787987E+00
Pb    4.7522557849365459E+00   -2.4895498167045545E+01   -1.6169073375965475E+01
Pb    4.2770258479013581E+00   -2.1509870198516431E+01   -6.2672983017865267E+00
Pb    5.4704740628526300E+00   -2.1562833084310601E+01    1.8400101005772551E+00
Pb    5.9301111461831333E+00   -8.2582895071758138E+00   -1.9588444463909926E+01
Pb    3.7517478744745882E+00   -3.3480013147593826E+00   -6.5841242172912517E+00
Pb    8.2146537227279879E+00   -8.5838879484536754E+00    5.5987708257168558E+00
Pb    9.1881852289157298E+00    8.6721444316099845E+00   -1.4899933964210536E+01
Pb    7.9742525649619598E+00    6.5382666951408721E+00   -4.1830495785619695E+00
Pb    9.7836804216793460E+00    8.3870378502359308E+00    4.9193789550931015E+00
Pb   -1.2823071886195448E+01   -2.1948382080044667E+01   -9.9951081973999152E+00
Pb   -1.0497136132600565E+01   -2.4019583916047534E+01   -1.4685216257463725E+00
Pb   -1.2932471578915335E+01   -2.6468943816907242E+01    1.3006403542198939E+01
Pb   -1.4287794522307022E+01   -9.5254649152492732E+00   -1.3521794296608608E+01
Pb   -1.2773966261406564E+01   -6.3592185074903265E+00   -3.7568370009011212E-02
Pb   -1.2661779833990069E+01   -8.4880899931107425E+00    1.0052884775965179E+01
Pb   -1.1476961815910277E+01    6.6178333581674780E+00   -1.0847585547262346E+01
Pb   -1.1710918709478600E+01    5.8434452010487705E+00   -1.1460107313121941E+00
Pb   -9.4469454420233738E+00    7.1044951734709541E+00    1.2856591384246805E+01
Pb   -2.3209218727130825E+00   -2.3448647939127749E+01   -1.0496041000329273E+01
Pb   -2.6350668366075949E+00   -2.2179609605646863E+01   -2.6582215085153336E+00
Pb    2.6033792513143283E-01   -2.6054822524950453E+01    1.0877406195585637E+01
Pb   -1.4031309150395308E+00   -1.0727723533682212E+01   -1.4390858147121531E+01
Pb   -8.8611439482715904E-01   -5.1838036868570061E+00   -1.1237303984312845E+00
Pb    1.5368713917381505E+00   -7.9871598655386862E+00    8.4045875622337647E+00
Pb    2.7742975567011618E-01    1.0607404985739784E+01   -1.0025054792917002E+01
Pb    3.6247024831472272E+00    8.0029785139147673E+00    5.6431202572388095E-01
Pb   -6.5823221221947836E-01    9.3685874835045553E+00    1.3008460270568936E+01
Pb    1.1796042637554152E+01   -2.3803186621412252E+01   -1.0446287655991354E+01
Pb    1.1377004098149465E+01   -2.5149405431676197E+01    6.9635407188628484E-01
Pb    1.0229119800159111E+01   -2.5847213331120379E+01    1.1020393186587302E+01
Pb    1.1926811009191857E+01   -5.9676731979889910E+00   -1.0386849795167127E+01
Pb    1.1979709620572185E+01   -7.3832543112722524E+00    1.7155589292627990E-01
Pb    1.0482257077688558E+01   -3.7614244974003475E+00    1.0587062334336313E+01
Pb    1.1790274225427257E+01    7.2140098183995462E+00   -9.0597961098177766E+00
Pb    1.3296777089278610E+01    6.3603297071474545E+00    3.4501495064247273E-01
Pb    1.1996844262668317E+01    9.6939719588414022E+00    1.2294347206726094E+01
Cs   -1.4978135423507759E+01   -2.2936277141037131E+01   -1.6583757227605616E+01
Cs   -1.0938993436472241E+01   -1.6781431711736278E+01   -5.5173047394920331E+00
Cs   -1.1917335093731134E+01   -1.9885768830408939E+01    1.1049128358525509E+01
Cs   -8.3356288957408040E+00   -3.9203367819638508E+00   -1.6055380489958424E+01
Cs   -1.1325387530812314E+01   -5.0623745134745786E+00   -5.6099850148604302E+00
Cs   -1.2208979872392714E+01   -6.1021077177286491E+00    5.5704521385522314E+00
Cs   -9.4149363965571133E+00    1.0081691677126125E+01   -1.5738894447372910E+01
Cs   -8.5088301017420687E+00    1.5033167534761494E+01   -6.8311993291879700E+00
Cs   -1.0967638761378446E+01    1.1036111783774299E+01    5.6305795762120523E+00
Cs    5.7960680905373074E-01   -2.1770799115788410E+01   -2.0031749912490252E+01
Cs   -4.4316237846881334E-01   -1.7689477752474261E+01   -6.2722120877279535E+00
Cs    4.6525129271177379E-01   -2.0250185005171645E+01    2.0852629307811177E+00
Cs    6.5410830772394590E-01   -4.6139926098053419E+00   -1.7385298248702146E+01
Cs   -1.6977935272663167E+00    4.4785929206237246E-01   -7.3148256904042759E+00
Cs   -7.1345038342931988E-01   -1.2215619470058314E+00    3.5081313010960198E+00
Cs   -1.7444693666775881E+00    1.3709514439315079E+01   -1.4536414462130091E+01
Cs    1.3525878563393734E+00    1.2706081973787894E+01   -5.2912018294947680E+00
Cs   -5.0667173108611030E-01    1.1861732126425988E+01    5.2489127775093412E+00
Cs    1.2372505202215468E+01   -2.1952839757286881E+01   -1.6853276893933071E+01
Cs    1.2580188812205746E+01   -2.0998041341583630E+01   -3.4885381511577975E+00
Cs    1.4212767139537949E+01   -2.3575177287399136E+01    5.8089804672577987E+00
Cs    9.1348713269975246E+00   -4.3669777158117036E+00   -1.6846900222091424E+01
Cs    1.0256708211015413E+01   -5.3403795931931981E+00   -4.9537725711283613E+00
Cs    1.2249506494570216E+01   -3.3725825722586475E+00    5.5538224481560841E+00
Cs    1.0134031424852825E+01    1.2207795545601607E+01   -9.2791707344437455E+00
Cs    1.4156219189639527E+01    1.0056359504177788E+01   -4.5344617904805355E+00
Cs    1.2751647873765691E+01    1.2633070318669093E+01    4.4423590334798613E+00
Cs   -5.3905215405369438E+00   -1.2258577680883040E+01   -1.0788274337726753E+01
Cs   -2.9560298348987912E-01   -1.2969761596040350E+01   -2.6820504583117026E+00
Cs   -3.9274678577388644E+00   -1.4210363661158706E+01    1.1644693911922012E+01
Cs   -7.5802229627486257E+00    2.2670900838948218E+00   -1.2453306111736516E+01
Cs   -6.3097101915889420E+00    5.2346755365042075E+00    6.6281729245981758E-01
Cs   -5.8718997826370076E+00    3.0654997332843759E+00    1.1422469944679207E+01
Cs   -6.3902954327162274E+00    2.0370786624273343E+01   -9.1061911988106470E+00
Cs   -4.5488703111516822E+00    2.1430891945188698E+01    2.6342652716115342E+00
Cs   -7.4310591598431461E+00    2.1921001543525200E+01    1.1092723408976235E+01
Cs    6.7819540560022169E+00   -1.0560440292247090E+01   -9.7589947705863747E+00
Cs    4.9898443145925429E+00   -1.0735985519589780E+01   -3.0853735821428123E+00
Cs    7.2189465591107718E+00   -1.2875050656425309E+01    1.0428933091653869E+01
Cs    5.5163170408415008E+00    8.4001345318884741E+00   -1.0019066258631529E+01
Cs    9.9971931131936103E+00    2.8139980471198185E+00    1.9595612177084438E+00
Cs    5.1374052739180147E+00    6.9234125585940198E+00    1.2298517800865014E+01
Cs    5.1197155847571016E+00    2.2866048383464964E+01   -9.2428804303366956E+00
Cs    6.4595931882660951E+00    2.1391198252055762E+01   -3.1454080749426772E+00
Cs    5.3906742374603063E+00    2.2752983399628789E+01    7.9677955141401817E+00
Cs    1.7366090823784923E+01   -1.1705056326806760E+01   -8.8867971921271049E+00
Cs    2.1950420432613441E+01   -9.2374802334885757E+00   -3.8330366770571409E+00
Cs    1.4107527133866890E+01   -1.0966668152403180E+01    9.2536627234192377E+00
Cs    1.9979860487950045E+01    2.2442144597899265E+00   -1.2112621523686400E+01
Cs    2.0830199241641985E+01    2.1440755405897320E+00    8.1354834696510461E-02
Cs    1.9975158328732164E+01    3.3017140031932888E+00    1.3218302578909446E+01
Cs    1.8538165580171423E+01    2.0376426304524223E+01   -9.6567021400282336E+00
Cs    1.9721482904346040E+01    1.9751125745848626E+01    2.2689968068587070E+00
Cs    1.7726519599164607E+01    1.9238248091191412E+01    1.2135815560179088E+01
Cs   -1.0475677013880256E+01   -1.2409187889680259E+01   -1.0061468926464935E+01
Cs   -1.1085226842458155E+01   -1.1647494692868023E+01    2.4774374152337808E+00
Cs   -1.3432846368509958E+01   -1.4593928378767313E+01    1.7317546174026987E+01
Cs   -1.2592199300572943E+01    2.7127008632340264E+00   -7.0571014396765825E+00
Cs   -1.3208206485848809E+01    4.7028328016307714E+00    8.0353181622563934E+00
Cs   -1.1757460415909710E+01    1.8742891792122822E+00    1.4251410488517958E+01
Cs   -1.1448157232688798E+01    2.0029827710066748E+01   -5.4426018755152050E+00
Cs   -1.0246080304099822E+01    2.1478895698866733E+01    5.6706750492576061E+00
Cs   -1.5518101264127354E+01    1.3703304233644307E+01    1.6000895921158598E+01
Cs   -1.2405888293591667E+00   -8.0443643671076313E+00   -8.5106949979087467E+00
Cs   -6.0424405134742698E-01   -1.1715252512349826E+01    4.3995304498020937E+00
Cs    1.5757091991881451E+00   -1.1277748303259235E+01    1.3784229004589003E+01
Cs    1.9529478398494817E+00    5.8639738570540265E+00   -4.1915119711266673E+00
Cs    2.0444725505173169E+00    6.4620669865645866E+00    5.0727211040219142E+00
Cs   -3.3276430469163198E-01    3.3060275797682621E+00    1.4488474426596143E+01
Cs   -3.3792390305442760E-02    2.0990622897894152E+01   -5.2138013156188610E+00
Cs    1.2503340386853763E+00    1.8330913136939426E+01    4.0290779331125366E+00
Cs    3.8825459135821055E-01    1.9059171481618499E+01    1.6212877645544584E+01
Cs    1.1260795708240495E+01   -1.2669765534637586E+01   -5.7944863721378477E+00
Cs    1.3105858936767262E+01   -1.2711556816880286E+01    3.5783889282021093E+00
Cs    1.5865611514019786E+01   -9.8601172891115301E+00    1.8632638052984991E+01
Cs    1.3045426241289615E+01    2.9925378210554845E+00   -3.9782060177064036E+00
Cs    1.3697460336876885E+01    3.8651363212853616E+00    6.0454289526234177E+00
Cs    1.2203246001425986E+01    3.1318687189360199E+00    1.4301332726302141E+01
Cs    1.0871194458366002E+01    1.8852572809990914E+01   -3.1124126413753310E+00
Cs    1.2584038242677785E+01    1.8419471839969656E+01    2.8129102532368857E+00
Cs    9.2306931188985484E+00    2.1009862464283525E+01    1.8444531491094317E+01
Cs   -1.8612704948850453E+01   -2.2695442160134299E+01   -9.0932578245566749E+00
Cs   -1.4522648376647012E+01   -2.1330782679321395E+01    3.5300433394400343E+00
Cs   -1.9715775881890348E+01   -1.9626883642340687E+01    1.1249451280254956E+01
Cs   -1.9761775462888394E+01   -4.7577858200070517E+00   -1.5819978479881176E+01
Cs   -1.9288792655010862E+01   -7.6725622539834948E+00   -9.1053468255769210E-01
Cs   -1.7273011294113264E+01   -4.0758684891563561E+00    1.0005907852889424E+01
Cs   -1.5388950761811275E+01    1.3544901457974468E+01   -6.4711537784865447E+00
Cs   -1.4719419253255817E+01    1.2663692966811384E+01   -3.1778044187571125E-01
Cs   -1.4738001983975499E+01    9.4611829949198825E+00    1.1238311685891839E+01
Cs   -8.1488355526174807E+00   -1.7504341139101300E+01   -1.0918588738053826E+01
Cs   -5.4104426101158909E+00   -1.5381343709444984E+01   -2.9189078438779970E-01
Cs   -5.9061882370725147E+00   -2.0315104722395787E+01    1.2430429876353681E+01
Cs   -5.2774134976625611E+00   -4.1824303890078038E+00   -9.1172717601452646E+00
Cs   -6.4998203699510162E+00   -3.3477402718481093E+00   -2.0232874044665361E+00
Cs   -2.2087681808495052E+00   -4.6845254484115664E+00    1.0441868588430669E+01
Cs   -4.6075359435341889E+00    1.1342427565175566E+01   -9.1419125513363060E+00
Cs   -3.0984916870824382E+00    1.1476654761294526E+01   -2.7114839053132980E+00
Cs   -6.9484447170790160E+00    1.1839131617811192E+01    1.2922824750723558E+01
Cs    3.3590882354925569E+00   -1.9325225028151177E+01   -1.1480541503811427E+01
Cs    4.5596109563034046E+00   -1.8687001139928977E+01   -1.9725101382643833E+00
Cs    6.5074150391994037E+00   -1.8752819877905612E+01    1.0230944521383687E+01
Cs    3.3208440851743681E+00   -5.7770804884822251E+00   -1.2334146544616470E+01
Cs    6.7221552511355158E+00   -3.2150718164438481E+00   -6.6404428673278137E-01
Cs    4.7767059703656036E+00   -1.7289913403235526E+00    1.0217322529906372E+01
Cs    5.0389286680286425E+00    1.4471905146986888E+01   -1.3036325120017363E+01
Cs    8.8502087559672198E+00    1.2539398739280996E+01   -2.2614664442441419E+00
Cs    3.6411176569217556E+00    1.3302408755587324E+01    1.2709865700076051E+01
Br   -1.7647313910432331E+01   -1.6275207775193859E+01   -1.4853705693806038E+01
Br   -2.0160289731571726E+01   -1.6214515970823239E+01    3.0462075076798136E+00
Br   -1.5993589891475816E+01   -1.5684919723430443E+01    5.9327457820488201E+00
Br   -1.2927059744472734E+01    3.9893590197540171E-02   -1.1035910372242896E+01
Br   -1.4101736592956392E+01    1.4464711179872176E-02   -2.2273856663739697E+00
Br   -1.5005645099638565E+01   -3.0675007201532134E+00    3.6778552575485239E+00
Br   -1.3400973135557752E+01    1.9132602131420374E+01   -1.4541290917896401E+01
Br   -1.0153834443361280E+01    1.7063915091919469E+01   -3.0493020933216219E+00
Br   -1.7686706215775057E+01    1.5943858367733592E+01    1.0424236338817352E+01
Br   -9.2709604649550776E+00   -1.4550752605407359E+01   -1.2976426372884756E+01
Br   -3.4347018338381519E+00   -1.5625053280992242E+01   -3.9215883878564366E+00
Br   -4.6781749483265100E+00   -1.4839240764941668E+01    7.9885768937683475E+00
Br    7.0560512954753818E-01   -2.9417548110055036E+00   -1.2138305073725038E+01
Br   -1.5304043122087860E+00    3.5885482831765141E+00   -3.8443820805838538E+00
Br   -3.1499477888120602E+00    1.3013143916774765E+00    1.3119047124623544E+01
Br   -2.6549808819789615E+00    1.6143992169938358E+01   -1.2066783833757684E+01
Br   -2.4405528872640014E-01    1.5763281763215488E+01   -2.3388293822242954E+00
Br   -4.3269620051221933E+00    1.5269366366870113E+01    9.8789852561486331E+00
Br    9.9251074818906950E+00   -8.4222910453331767E+00   -1.4888507898845475E+01
Br    9.4860100230568651E+00   -1.8335156369041581E+01   -1.3544930042547423E+00
Br    9.6256579776401008E+00   -1.6435700144301745E+01    8.5891258935600661E+00
Br    8.7458802768693893E+00    8.2208905431299861E-01   -1.1857730422089338E+01
Br    1.1669402202454064E+01   -9.0950207978033015E-01   -1.5929951710508305E+00
Br    1.0331934282978043E+01    4.7538404792555440E+00    1.0077683743332347E+01
Br    1.2925242514577567E+01    2.0191348684558896E+01   -1.1341094865144699E+01
Br    7.7381037183963528E+00    1.8696658969400382E+01   -6.0802463855276807E+00
Br    4.2358797961078896E+00    2.0822403011566536E+01    4.7528592807639907E+00
Br   -1.9411587149374963E+01   -1.9128192271706215E+01   -1.1303588072508960E+01
Br   -1.2427727505335328E+01   -1.6181754044261286E+01    2.8077734274368282E+00
Br   -1.9979561223905744E+01   -1.1546316991512251E+01    1.2884807779745863E+01
Br   -1.5898968987193340E+01    1.4928944441147949E+00   -7.0595899938919588E+00
Br   -1.8826723830117789E+01   -2.3851357190454103E+00    4.1785786922829388E-01
Br   -1.1303363689650897E+01   -3.0286351251738455E+00    1.4772288441647762E+01
Br   -1.5191579168077388E+01    1.9146755746684331E+01   -5.5151452632650804E+00
Br   -1.3538436422624624E+01    1.6202530795846595E+01    7.2123803531324517E+00
Br   -2.4789256673204122E+01    1.2873722947524836E+01    1.5768633178782123E+01
Br   -3.5396197986394178E+00   -1.5361688931950063E+01   -9.6325645619274596E+00
Br    2.6041597924513299E-01   -1.6708868427459528E+01    3.7249272013645691E+00
Br   -1.8209954585494827E+00   -1.7003156522120769E+01    1.3722549066689961E+01
Br   -2.9080383014696083E+00    7.8116125392627789E-01   -1.1100442925866201E+01
Br   -6.0898630374913676E+00    1.9889630172967416E+00    2.6148187974899675E+00
Br   -4.2717867699311567E+00   -3.6277987002962866E+00    1.6621694421993713E+01
Br   -6.8866091122333009E+00    1.8239995873581062E+01   -5.0976037332033854E+00
Br    2.9110776872237785E+00    1.5117108605119862E+01    2.9057131210633256E+00
Br   -4.2406071453659626E+00    1.6938728610358073E+01    1.6452654748686747E+01
Br    7.9777984419414825E+00   -1.4734045989136794E+01   -9.9421209987145485E+00
Br    1.1063555210767152E+01   -1.6100371168429049E+01    2.6656531797457221E+00
Br    8.1492491948177950E+00   -1.5198520012528340E+01    1.3129919747250828E+01
Br    1.0840384486989583E+01    6.1343724697360359E-02   -6.1960161136138217E+00
Br    7.1718368667552079E+00   -5.0365879910070666E-01    1.6456904329049213E+00
Br    5.2384754824062574E+00   -1.2616384757486745E+00    1.7024158806441054E+01