 # Version information for this restart file 
 # current date 2020-12-23 14:59:57.450
 # current working dir /Users/bvanbeek/Downloads/MM_MD_workdir/md
 # Program compiled at                             Fri Apr 19 11:24:34 CEST 2019
 # Program compiled on                                             192.168.1.124
 # Program compiled for                           Darwin-IntelMacintosh-gfortran
 # Source code revision number                                         svn:18464
 &GLOBAL
   PRINT_LEVEL  LOW
   PROJECT_NAME cp2k
   RUN_TYPE  MD
 &END GLOBAL
 &MOTION
   &MD
     ENSEMBLE  NPT_F
     STEPS  10000
     TIMESTEP     2.4999999999999996E+00
     STEP_START_VAL  3000
     TIME_START_VAL     7.4999999999997844E+03
     ECONS_START_VAL    -5.5495911227455137E+00
     TEMPERATURE     3.0000000000000000E+02
     &BAROSTAT
       PRESSURE     1.0100000000000000E+00
       TIMECON     4.9999999999999994E+02
       &VELOCITY
             2.7430166119130507E-06    7.1164790257315364E-07   -2.0927441435927253E-06    7.1164790257318011E-07 \
            -5.5211386303460349E-07   -2.4022147635416415E-06   -2.0927441435927190E-06   -2.4022147635416487E-06    9.5103190283830796E-07
       &END VELOCITY
       &MASS
             2.1920353963970435E+08    2.1920353963970435E+08    2.1920353963970435E+08    2.1920353963970435E+08 \
             2.1920353963970435E+08    2.1920353963970435E+08    2.1920353963970435E+08    2.1920353963970435E+08    2.1920353963970435E+08
       &END MASS
       &THERMOSTAT
         TYPE  CSVR
         &CSVR
           TIMECON     9.6755373060191392E+00
           &THERMOSTAT_ENERGY
                -1.2120879741002724E-02
           &END THERMOSTAT_ENERGY
           &RNG_INIT
Wiener process for Thermostat # 1        1 F T F  -7.4024309221767379E-02         490263625.0         599561846.0        2884493811.0        2028977851.0        2766625265.0        1403076415.0             12345.0             12345.0             12345.0             12345.0             12345.0             12345.0             12345.0             12345.0             12345.0             12345.0             12345.0             12345.0
           &END RNG_INIT
         &END CSVR
       &END THERMOSTAT
     &END BAROSTAT
     &THERMOSTAT
       TYPE  CSVR
       &CSVR
         TIMECON     4.9999999999999994E+02
         &THERMOSTAT_ENERGY
              -1.6138992111591670E+00
         &END THERMOSTAT_ENERGY
         &RNG_INIT
Wiener process for Thermostat # 1        1 F T F   7.6848161490576461E-01        2738549763.0        1489606537.0        4079612252.0        3991917109.0        1864092965.0        1939781565.0             12345.0             12345.0             12345.0             12345.0             12345.0             12345.0             12345.0             12345.0             12345.0             12345.0             12345.0             12345.0
         &END RNG_INIT
       &END CSVR
       &PRINT
         &TEMPERATURE  ON
           FILENAME 
           &EACH
             MD  10
           &END EACH
         &END TEMPERATURE
       &END PRINT
     &END THERMOSTAT
     &AVERAGES  T
       &RESTART_AVERAGES
         ITIMES_START  1
         AVECPU     4.4639771666998437E-02
         AVEHUGONIOT     0.0000000000000000E+00
         AVETEMP_BARO     2.6106594961458717E+02
         AVEPOT    -5.1288492167823438E+00
         AVEKIN     6.5359198733008794E-01
         AVETEMP     2.5527245475738312E+02
         AVEKIN_QM     0.0000000000000000E+00
         AVETEMP_QM     0.0000000000000000E+00
         AVEVOL     2.6496447303020919E+05
         AVECELL_A     5.7316802356317616E+01
         AVECELL_B     8.0968425141382880E+01
         AVECELL_C     5.6825724371077548E+01
         AVEALPHA     8.9721363334550105E+01
         AVEBETA     8.9572050387385971E+01
         AVEGAMMA     8.8994839071875859E+01
         AVE_ECONS    -1.3336362790325320E+00
         AVE_PRESS     4.1635021167820749E+00
         AVE_PXX     3.3755979311194033E+00
       &END RESTART_AVERAGES
     &END AVERAGES
   &END MD
   &PRINT
     &TRAJECTORY  ON
       &EACH
         MD  10
       &END EACH
     &END TRAJECTORY
     &CELL  ON
       FILENAME 
       &EACH
         MD  10
       &END EACH
     &END CELL
     &FORCES  ON
       FILENAME 
       &EACH
         MD  10
       &END EACH
     &END FORCES
   &END PRINT
 &END MOTION
 &FORCE_EVAL
   METHOD  FIST
   STRESS_TENSOR  ANALYTICAL
   &MM
     &FORCEFIELD
       VDW_SCALE14     1.0000000000000000E+00
       EI_SCALE14     1.0000000000000000E+00
       SHIFT_CUTOFF  T
       DO_NONBONDED  T
       IGNORE_MISSING_CRITICAL_PARAMS  T
       &SPLINE
         R0_NB     1.0000000000000001E-01
       &END SPLINE
       &NONBONDED
         &LENNARD-JONES
           ATOMS Cs Cs
           EPSILON     2.2644852172126850E+01
           SIGMA     5.8500000000000005E+00
         &END LENNARD-JONES
         &LENNARD-JONES
           ATOMS Cs Pb
           EPSILON     8.6920055954630953E+01
           SIGMA     5.1000000000000005E+00
         &END LENNARD-JONES
         &LENNARD-JONES
           ATOMS Br Pb
           EPSILON     2.0528187276773045E+02
           SIGMA     2.9000000000000004E+00
         &END LENNARD-JONES
         &LENNARD-JONES
           ATOMS Br Cs
           EPSILON     5.3481070753900497E+01
           SIGMA     3.8500000000000005E+00
         &END LENNARD-JONES
         &LENNARD-JONES
           ATOMS Br Br
           EPSILON     1.2630795322675199E+02
           SIGMA     4.2599999999999998E+00
         &END LENNARD-JONES
         &LENNARD-JONES
           ATOMS Pb Pb
           EPSILON     3.3363415533600221E+02
           SIGMA     5.9800000000000004E+00
         &END LENNARD-JONES
       &END NONBONDED
       &CHARGE
         ATOM Cs
         CHARGE     2.0000000000000001E-01
       &END CHARGE
       &CHARGE
         ATOM Pb
         CHARGE     4.0000000000000002E-01
       &END CHARGE
       &CHARGE
         ATOM Br
         CHARGE    -2.0000000000000001E-01
       &END CHARGE
     &END FORCEFIELD
     &POISSON
       PERIODIC  XYZ
       &EWALD
         EWALD_TYPE  SPME
         GMAX  22
         O_SPLINE  4
       &END EWALD
     &END POISSON
     &PRINT
       &FF_INFO  LOW
         SPLINE_INFO  F
         SPLINE_DATA  F
       &END FF_INFO
     &END PRINT
   &END MM
   &SUBSYS
     &CELL
       A     3.4401423631155041E+01    4.4479666037804572E-01   -4.3733773242953505E-01
       B     4.5383795388703735E-01    4.5233042716278831E+01    5.5633907180599451E-01
       C    -5.0106918165857006E-01    4.4657093379731727E-01    3.2733900080759845E+01
       PERIODIC  XYZ
       MULTIPLE_UNIT_CELL  1 1 1
     &END CELL
     &COORD
Br   -1.0745813418402859E+01    1.8157598928338857E+01    8.8846096906302341E-01
Br   -1.2320043040478186E+01    1.7043730543303859E+01    1.2660499736154716E+01
Br    3.9943884635758681E-02   -1.2818847150883956E+01   -1.4251321264877420E+01
Br   -2.7066054070678356E+00   -8.0922464426380198E+00   -4.0506907035364552E+00
Br    2.5082198494078392E+00   -1.0946118463247286E+01    8.9525797104432687E+00
Br   -1.8469760624943508E+00    6.9605624153699264E-01   -1.4731897573867291E+01
Br   -3.0436475929619964E+00    5.9933618916820999E+00    2.9969230127650537E-01
Br   -1.0749286188031959E+00    4.4603808409167272E+00    1.0106562356082192E+01
Br    1.0306810064243832E+00    1.9579204413743405E+01   -9.4871763059820076E+00
Br   -2.5999569713494095E+00    1.8732972530632811E+01    3.5054489427925644E+00
Br    5.0079210374396177E-01    1.9610811969521176E+01    9.6651978430790013E+00
Br    1.1414588413884360E+01   -1.1188516633016009E+01   -1.1122741774085455E+01
Br    1.3155461540406357E+01   -9.0660906055495385E+00   -2.6401911630034208E-01
Br    1.1288526520543883E+01   -1.2841669197308098E+01    1.0913345475703080E+01
Br    1.0885891126453810E+01    3.5516092490137110E+00   -9.5921259188847152E+00
Br    1.2931027754923157E+01    3.6713452419267059E+00    3.6467200906765647E-02
Br    1.0230873657187054E+01    6.8883048621777911E+00    7.8484622130836179E+00
Br    1.1963256984448963E+01    1.9857207512283381E+01   -6.8904340733387155E+00
Br    1.3691569786104616E+01    1.7914543437291059E+01   -6.6455417083590540E-02
Br    1.2963691505254531E+01    1.9075553980568923E+01    9.0527355615340124E+00
Pb   -1.9316729202943364E+01   -1.5300173878059258E+01   -1.5661842637001152E+01
Pb   -1.7713305436590321E+01   -1.5804823119224174E+01   -1.5805920976786496E+00
Pb   -1.7466211105069405E+01   -1.6470201009652584E+01    4.8757980403928469E+00
Pb   -1.4900654434444847E+01   -1.7211400994729456E+00   -1.6122318446971658E+01
Pb   -1.6109421358486351E+01    1.8103671595571966E-01   -5.2099105393435972E+00
Pb   -1.6341630869845577E+01   -2.6088266885669289E+00    4.5584037650368776E+00
Pb   -1.9258283763399806E+01    1.2709911243208987E+01   -1.5167697636862012E+01
Pb   -1.7616966538208477E+01    1.7176086420733657E+01   -4.2542603218797792E+00
Pb   -1.5994209509507179E+01    1.4025027545701908E+01    5.4847873804844047E+00
Pb   -6.3900040556869131E+00   -1.7483166713047655E+01   -1.6153696440549307E+01
Pb   -5.2807935594560780E+00   -1.5326205728166959E+01   -6.6466999701540610E+00
Pb   -5.4538693247454901E+00   -1.4636417903446549E+01    7.1632924879808488E+00
Pb   -5.1195979928519240E+00   -1.0214290366840832E+00   -1.5687916899264239E+01
Pb   -6.2743177081199857E+00    7.1254757855723508E-02   -5.3576235963413721E+00
Pb   -7.9916769543985708E+00    1.0134609480455048E+00    4.4022672879722800E+00
Pb   -5.9548368281047379E+00    1.5227856058485891E+01   -1.4834135647370138E+01
Pb   -3.7151926582160408E+00    1.6634358102300773E+01   -3.9496412919680539E+00
Pb   -8.2821829833202933E+00    1.4966182580767216E+01    8.5860397263718440E+00
Pb    6.6168021800852506E+00   -1.4465646833122486E+01   -1.7493735049380838E+01
Pb    4.5370658032198392E+00   -1.5092914262572904E+01   -8.1673108668735210E+00
Pb    6.6030808851219440E+00   -1.5822052223458588E+01    6.3985335995846269E+00
Pb    5.7769982425229003E+00    5.8633088635255448E-01   -1.3633171724749809E+01
Pb    7.3616569961775333E+00    1.0271276965804350E+00   -4.0894117684610771E+00
Pb    4.2492532345300509E+00    2.1849251681040442E+00    3.5648835905963430E+00
Pb    6.0584806927490913E+00    1.5656175278277162E+01   -1.7146571984652052E+01
Pb    6.2896998092593925E+00    1.5048076595035758E+01   -4.4260929235755686E+00
Pb    5.3703798851504079E+00    1.3511220931413586E+01    3.9433030604343302E+00
Pb   -1.4358353747826243E+01   -1.4487672372312588E+01   -1.1872245854577949E+01
Pb   -1.0145315424601788E+01   -1.5168305606358173E+01    1.8762980409560656E-01
Pb   -1.1135022431844957E+01   -1.3744563185457887E+01    1.1643165384399483E+01
Pb   -1.1349186108169455E+01   -1.7201268154891913E+00   -8.8015060237337170E+00
Pb   -1.1710084682130548E+01   -4.7383424799967716E-01   -5.9123032859359848E-01
Pb   -9.3158482219023497E+00   -8.1339773128112502E-01    9.9074992871122483E+00
Pb   -1.1134572927976647E+01    1.7136008454068907E+01   -1.1839339430427003E+01
Pb   -9.5517696164217458E+00    1.5171724671058396E+01   -6.3571419744058347E-02
Pb   -1.3421766771425485E+01    1.4236401507907825E+01    1.1805297747606327E+01
Pb   -6.3879994034997289E-01   -1.5131051216853731E+01   -1.2665427061441850E+01
Pb    9.1463788625683218E-01   -1.5976938557025518E+01    1.8483791770128979E+00
Pb    1.4026375823038675E+00   -1.3708451695212750E+01    9.1146662985378288E+00
Pb    4.1169056850809280E-02    6.1765119678749214E-01   -1.1876593954676578E+01
Pb   -1.1150414159464654E+00    3.6426478928607890E+00   -9.4613680812205947E-01
Pb   -2.2001710671217231E-01    1.4390606655586715E+00    8.8426611523883096E+00
Pb   -1.6654438790172135E-01    1.7237203522115017E+01   -1.1649014864806658E+01
Pb    1.5728290454881424E+00    1.5414176526451657E+01   -6.5560784069125133E-01
Pb   -2.9540295213046142E-01    1.5287252376837847E+01    1.1249538826506754E+01
Pb    1.1760341413854274E+01   -1.4368996589070200E+01   -1.0748215205707831E+01
Pb    1.0881916726060822E+01   -1.7079274205441930E+01    4.1435273473104900E-01
Pb    1.1255087174464128E+01   -1.6151252748924303E+01    1.1500326297821523E+01
Pb    1.1534521359734711E+01    3.1833886553966334E-01   -1.0009726081655661E+01
Pb    1.2167091747648310E+01   -1.5737312633167033E-01   -1.9136228475408751E-01
Pb    9.6025577090678276E+00    2.6580962688991678E+00    9.3238350428610186E+00
Pb    1.1965935542202208E+01    1.7153112910897882E+01   -8.9375751770655469E+00
Pb    1.4432986969618215E+01    1.4195726435360342E+01    1.9917391762268480E-01
Pb    1.1999251709746114E+01    1.4357781929518024E+01    1.0220102992630444E+01
Pb   -1.8752055332431325E+01   -2.5932300222696515E+01   -1.6024103462083925E+01
Pb   -1.6072612603213550E+01   -2.2609103706714833E+01   -3.6249905223199184E+00
Pb   -1.6517552475063358E+01   -2.3375021190745127E+01    7.4274956943945618E+00
Pb   -1.6833802798190462E+01   -8.7473625053186517E+00   -1.8501900636767296E+01
Pb   -1.7413191468245177E+01   -5.6218769503477537E+00   -8.2831785024535254E+00
Pb   -1.6953916726552805E+01   -9.9551129127089144E+00    4.2818747256871870E+00
Pb   -1.8894361538386566E+01    6.3076645736360684E+00   -1.5107784827939806E+01
Pb   -1.7052898866634969E+01    6.1257924459291253E+00   -4.5177025155762163E+00
Pb   -1.6700911245424741E+01    7.1717490948572102E+00    5.8131659910571907E+00
Pb   -6.0110682830438353E+00   -2.3430042158513618E+01   -1.4960070240041066E+01
Pb   -5.5774842737512564E+00   -2.1819500855181239E+01   -6.1703780082789441E+00
Pb   -6.6856815284171347E+00   -1.9854755612525977E+01    3.4867989302543596E+00
Pb   -7.0825696565212040E+00   -1.0832941727901519E+01   -1.5495115267828877E+01
Pb   -6.9090209537816119E+00   -8.2731064077432137E+00   -4.1262522007108231E+00
Pb   -5.1273765834250220E+00   -5.5099638185553816E+00    4.7010040667981183E+00
Pb   -3.9968759491762720E+00    7.9457453515650949E+00   -1.6187599718762900E+01
Pb   -4.1488075002432607E+00    5.7098137878523829E+00   -6.9839613181710591E+00
Pb   -5.4569191419232990E+00    7.6359247602845572E+00    7.5036611183870940E+00
Pb    3.9369287788956413E+00   -2.3623574644880694E+01   -1.5731719475972010E+01
Pb    5.3594629395032252E+00   -2.1032306534249635E+01   -6.2883827098130478E+00
Pb    5.2146588775309537E+00   -2.0615461280842073E+01    2.5196097128688306E+00
Pb    6.2068506334331630E+00   -7.1802245236576070E+00   -1.8292446557124837E+01
Pb    4.3517276926916830E+00   -5.3342082302022096E+00   -6.4818083690594337E+00
Pb    6.4157624338563251E+00   -7.0309412682061643E+00    5.8170295056066657E+00
Pb    8.7707013216637169E+00    7.3054324988806965E+00   -1.5593055636914405E+01
Pb    8.2307504086698575E+00    7.6223166871087562E+00   -4.5013700172200775E+00
Pb    8.4564752447514966E+00    8.0961981566495744E+00    5.2120280227933868E+00
Pb   -1.1786329391825989E+01   -2.2128106053972768E+01   -9.3984634223856691E+00
Pb   -9.9409345304522656E+00   -2.2210020981584268E+01   -1.5738211336412682E+00
Pb   -1.2846758373760697E+01   -2.5039847134213506E+01    1.2441587122586792E+01
Pb   -1.3598151433710362E+01   -8.9925441301965989E+00   -1.3230581089598289E+01
Pb   -1.0156342208831802E+01   -6.4179498549208249E+00    1.2377584919113025E+00
Pb   -1.1791450994230546E+01   -7.4671783645633258E+00    1.1279114238922990E+01
Pb   -1.1677195936683786E+01    5.8572289576789398E+00   -1.1451649229480063E+01
Pb   -1.1389488149114221E+01    6.9548731527237821E+00   -3.4574696363510626E-01
Pb   -1.0334546621442824E+01    7.4176921191842169E+00    1.2042343428450117E+01
Pb   -3.9833640808321463E-01   -2.1832479955277627E+01   -1.1599354459142894E+01
Pb   -2.3035631697923398E+00   -2.0592614825053406E+01   -1.0273575303090714E+00
Pb    6.4003076155093963E-01   -2.3326409823840105E+01    1.0793934512601799E+01
Pb   -1.0117030906501956E+00   -9.3764062667074075E+00   -1.3558172458749905E+01
Pb    5.6570348169702722E-01   -6.5473319252839781E+00   -1.9697615277836191E+00
Pb    4.8393939353972110E-01   -6.5328889869142994E+00    8.8917124579981923E+00
Pb    1.2067633220565368E+00    8.9998697434926314E+00   -1.0484390035835057E+01
Pb    3.5534628668851300E+00    8.3701457686140959E+00    3.7832607403454888E-01
Pb    6.5512175582743681E-01    8.1039302409893033E+00    1.2076008886028232E+01
Pb    1.1229400741314759E+01   -2.1254644498793642E+01   -9.3249665653054876E+00
Pb    9.3534754029901670E+00   -2.2500399468970002E+01   -1.4553460654020063E+00
Pb    1.0467341211526264E+01   -2.3423581303790140E+01    1.1573993206910341E+01
Pb    1.1431564202755204E+01   -6.0228566880990337E+00   -1.1612286635463819E+01
Pb    1.0528281362181723E+01   -7.6756972655836542E+00   -8.7068918587874800E-02
Pb    1.0755916597416041E+01   -5.3755340403255669E+00    1.0292325820516217E+01
Pb    1.1662928706672430E+01    6.5898165622829428E+00   -9.6215656184912142E+00
Pb    1.2861885138461199E+01    6.9035162669254282E+00   -1.6363269883243339E-01
Pb    1.2696650479992934E+01    7.9765901914290920E+00    1.0260426256909208E+01
Cs   -1.4662960439474869E+01   -2.0554372613098856E+01   -1.8219191799782585E+01
Cs   -1.0799444062740220E+01   -1.7760672664867204E+01   -5.5731712341967672E+00
Cs   -1.1105988192697039E+01   -1.8420541050623289E+01    7.8519135572422849E+00
Cs   -1.0206051272713870E+01   -4.9325573570641259E+00   -1.6458252434751440E+01
Cs   -1.2054027967808016E+01   -5.0065134276477528E+00   -3.5879521365929969E+00
Cs   -1.0373068121163138E+01   -4.4217564546844272E+00    6.6578997739759780E+00
Cs   -9.1758058730784899E+00    1.0956052776871198E+01   -1.5520930341990873E+01
Cs   -9.4429889982386115E+00    1.3792419701643496E+01   -6.3824249330685889E+00
Cs   -1.1238222856278670E+01    1.0938569789831696E+01    5.9792956488966169E+00
Cs   -5.9500597086388529E-01   -1.8222874131954345E+01   -2.0048524847886288E+01
Cs   -8.4786359643625719E-01   -1.9207410409481682E+01   -6.0162986642654035E+00
Cs   -8.1397719927088164E-01   -2.1086497687456376E+01    4.9530994248512235E+00
Cs    3.9863443334038851E-01   -4.5106003136292632E+00   -1.6517194543720695E+01
Cs    1.0668803983106981E-01    1.2625588418558593E+00   -5.7809493458586276E+00
Cs   -1.1782424758320347E+00   -2.3799951020828707E+00    3.4558967726128644E+00
Cs   -3.2035392720730288E-01    1.2071257240080426E+01   -1.4766548362428036E+01
Cs    7.3309041943954645E-01    1.2514516288222095E+01   -5.6660359681091723E+00
Cs   -1.4343968752487062E+00    1.1291959492693893E+01    5.4909190869413260E+00
Cs    1.0349866136543831E+01   -2.0195067961428730E+01   -1.6400078575480858E+01
Cs    1.2554552284151782E+01   -1.8658848133332832E+01   -4.5322581677615066E+00
Cs    1.3384117729234585E+01   -2.0834410535422386E+01    5.2305186857751060E+00
Cs    9.4239868057928984E+00   -3.5884631760419330E+00   -1.6638941727489460E+01
Cs    9.5472381901651833E+00   -3.6325435678847517E+00   -6.0744069028087733E+00
Cs    1.1733540993073630E+01   -3.0798813463890782E+00    5.0529941978903290E+00
Cs    1.0089097761447501E+01    1.2158663491520771E+01   -1.1147046817296905E+01
Cs    1.3052713081610367E+01    1.0530983030388237E+01   -4.9091723116775077E+00
Cs    1.3325946378553688E+01    1.1334468522104620E+01    4.9348249902176367E+00
Cs   -4.9472086281347369E+00   -1.2919187709310556E+01   -1.0800269949374771E+01
Cs   -2.0941867216901908E+00   -1.2370655082057468E+01   -1.8111415097503316E+00
Cs   -4.9979006544413798E+00   -1.2665395064437343E+01    1.2216610983200926E+01
Cs   -6.0157567303655970E+00    2.7126670933073114E+00   -1.0578666906787584E+01
Cs   -6.9473651108996570E+00    3.9734607539231681E+00   -5.9514746298673771E-01
Cs   -5.7653318082246248E+00    2.8697326446445031E+00    1.0920634597236244E+01
Cs   -4.9811954096919839E+00    1.9075616216694968E+01   -9.5405422417354000E+00
Cs   -6.5632583293760325E+00    1.9540009884867441E+01    1.1913878727889964E+00
Cs   -6.1666497093508053E+00    1.9462476939665873E+01    1.2121396818680729E+01
Cs    7.4863967603842001E+00   -9.5714490511126424E+00   -1.0576817808883138E+01
Cs    4.3660054830902304E+00   -1.0231585372183758E+01   -3.7291947298667014E+00
Cs    6.2159351138510335E+00   -1.1072894413986896E+01    1.0341929696540024E+01
Cs    6.3852606315828675E+00    6.3538461054389233E+00   -1.0816322900759843E+01
Cs    7.7829724777345453E+00    4.4444357707058337E+00    1.7138518811109213E-01
Cs    6.0934160799061319E+00    6.5081830978661834E+00    1.3247009442411489E+01
Cs    6.1348654593050007E+00    1.8695785692840296E+01   -1.0326513393252645E+01
Cs    5.5371515706550625E+00    1.9879950159436472E+01   -2.1459024228217860E+00
Cs    5.9087721682842069E+00    2.0299197373075749E+01    7.9598640231724316E+00
Cs    1.6448527942775328E+01   -1.1100287647100933E+01   -9.2742772363625310E+00
Cs    1.8674664866466493E+01   -9.7119094998374340E+00   -3.5479202228490205E+00
Cs    1.4756967610320622E+01   -1.2536597489241654E+01    1.0812220899700861E+01
Cs    1.8732875746033653E+01    2.5725182578604349E+00   -1.2315257452039942E+01
Cs    1.8515692084180817E+01    2.7995168414132676E+00    1.3517686903395389E+00
Cs    1.7023772695100767E+01    3.0001780316111559E+00    1.3146532175637732E+01
Cs    1.7882564280721937E+01    1.8898333469173146E+01   -9.1819568190111607E+00
Cs    1.8198426206915336E+01    1.9767345012182670E+01    1.1584954447067926E+00
Cs    1.5444151315903655E+01    1.7579086027509060E+01    1.1386972324715094E+01
Cs   -1.0681182801086281E+01   -1.1535981921988920E+01   -7.0312230895660779E+00
Cs   -1.0043154082227806E+01   -1.1368442889819038E+01    5.0295980722281088E+00
Cs   -1.1551186077391581E+01   -1.3209540201316154E+01    1.7022701062612210E+01
Cs   -1.1593006363846390E+01    3.2294129147192283E+00   -5.7957616432751378E+00
Cs   -1.1979360982455940E+01    4.4362314934505482E+00    6.7990633101525857E+00
Cs   -1.0685596303494211E+01    1.6518279229680526E+00    1.4692225615516044E+01
Cs   -1.1905925080334864E+01    1.8740160622300870E+01   -6.2350860144144065E+00
Cs   -1.1508343121244723E+01    1.8382782728529175E+01    6.8287244134908986E+00
Cs   -1.4334838329585860E+01    1.4935115153261336E+01    1.6865533459296664E+01
Cs   -4.6973499461780310E-01   -9.7802718599974732E+00   -6.9865145327794549E+00
Cs   -1.6976591120417928E+00   -1.0755888999161076E+01    4.7844829055972404E+00
Cs   -3.1264228004763284E-01   -1.0098485891979619E+01    1.3272750466300714E+01
Cs    1.9187767373083164E+00    7.4015586091731027E+00   -4.9284573782534533E+00
Cs    8.3081596888421660E-01    5.9400495094056875E+00    6.0375443605323875E+00
Cs    3.7579849098239648E-01    3.3172342436380386E+00    1.4981349945142393E+01
Cs    6.0841605941167254E-01    1.9828009063869480E+01   -5.6288564514544293E+00
Cs    9.0853439004687253E-01    1.9149352909636370E+01    5.2951810520064733E+00
Cs   -9.0695066895243792E-01    1.8542017361072105E+01    1.5727981069081928E+01
Cs    1.2012440306214197E+01   -9.9774501383067005E+00   -6.7467194940993558E+00
Cs    1.0471087880628472E+01   -1.1512089155562174E+01    3.1038151088668489E+00
Cs    1.1563133114081868E+01   -9.3639058603822249E+00    1.7153675995208033E+01
Cs    1.2728690155110911E+01    2.8667427459825956E+00   -5.6584899429065825E+00
Cs    1.4241926355527655E+01    3.4307649717731157E+00    4.0475045999545891E+00
Cs    1.2242729694344634E+01    2.0826307842685785E+00    1.6395986601252126E+01
Cs    1.1963855286835830E+01    1.9073234235507055E+01   -3.6254265948177213E+00
Cs    1.2826047549508088E+01    1.8454330586287828E+01    4.2677044297534952E+00
Cs    1.0315953719158484E+01    1.9251895475225570E+01    1.8676889614544475E+01
Cs   -1.6291563906232206E+01   -1.9703743637361416E+01   -9.1532284343368584E+00
Cs   -1.4666941083687069E+01   -2.0245202539118637E+01    2.8180621217112072E+00
Cs   -1.7874205995283695E+01   -1.9789453495048200E+01    1.0162783553133350E+01
Cs   -1.8919441164848102E+01   -4.7607525775792832E+00   -1.5058616488956680E+01
Cs   -1.7824359949144053E+01   -5.5886641068564877E+00   -3.9060104279644198E-01
Cs   -1.6750856404452779E+01   -4.0635685533138970E+00    1.0362410322665072E+01
Cs   -1.4104192379144500E+01    1.0117921311417138E+01   -7.8547441546224883E+00
Cs   -1.5678774085324998E+01    1.0332411389458940E+01   -1.6512515510940304E+00
Cs   -1.6230022079478481E+01    9.2663153611820146E+00    1.2702156087213305E+01
Cs   -7.5229775815340618E+00   -1.8280526023258581E+01   -1.0512434058507166E+01
Cs   -5.0458206768095204E+00   -1.6806761406164100E+01   -4.2734930669517918E-01
Cs   -6.5085651600055954E+00   -2.0024840995424398E+01    1.1032730454535356E+01
Cs   -6.1673779441526468E+00   -3.7930112861228058E+00   -9.9221863802779211E+00
Cs   -5.2115162705474232E+00   -2.9458594111665786E+00   -1.5592591850359490E+00
Cs   -4.2762504551701035E+00   -1.9214882795763935E+00    1.1738765387527069E+01
Cs   -4.3165877486722772E+00    1.2538435891690263E+01   -9.3455394164241259E+00
Cs   -4.8337425395867113E+00    1.0594651469403045E+01   -1.8609752714020562E+00
Cs   -5.5757618902818100E+00    1.1356603694472911E+01    1.1734172419287129E+01
Cs    6.6985943711253109E+00   -1.9086632856986242E+01   -1.2906389651940373E+01
Cs    5.0217892565056683E+00   -1.6111478422712533E+01   -1.9967203598290701E+00
Cs    4.9122005480216790E+00   -1.9424535029109784E+01    1.1267462158050909E+01
Cs    4.8455645573166430E+00   -5.1796269423110246E+00   -1.2194920836213559E+01
Cs    6.0471070852307998E+00   -4.3353599474839681E+00    1.2920564043572091E-01
Cs    4.1255969113001498E+00   -3.4344304721081018E+00    9.4710431915318196E+00
Cs    5.1055107973313731E+00    1.4113356304563153E+01   -1.1978048335177043E+01
Cs    9.4058506600610592E+00    1.1867131196746730E+01    5.3443079727623988E-01
Cs    4.7682813072774906E+00    1.1731157606798243E+01    1.1949095923510866E+01
Br   -1.6457775898759390E+01   -1.5012838301441876E+01   -1.4459721766253647E+01
Br   -1.6077559689680310E+01   -1.6786925552844554E+01    2.2210556816460234E+00
Br   -1.7323958761728299E+01   -1.4837761120544714E+01    7.6169284397957169E+00
Br   -1.1213122385086722E+01    1.4178550472838192E+00   -1.0466196854542043E+01
Br   -1.3605353035889609E+01   -4.4803040962488316E-01   -3.5521793922543488E+00
Br   -1.3466814763393909E+01   -1.7810118124011793E+00    5.8822087908884377E+00
Br   -1.3409447622517431E+01    1.8955118420829777E+01   -1.2702856322808353E+01
Br   -1.1129215725817810E+01    1.3592900360303906E+01   -2.2082546722195486E+00
Br   -1.5427146282359129E+01    1.3322921312481373E+01    8.7563389691810443E+00
Br   -3.8506306357149898E+00   -1.5263164049265363E+01   -1.4672154433160205E+01
Br   -3.2466904968133186E+00   -1.4350848676065993E+01   -4.9640820121263109E+00
Br   -2.6191609361470105E+00   -1.3390977164270636E+01    7.5117900436367249E+00
Br   -6.1090644027204011E-01   -2.5058988307701831E+00   -1.1561479967799697E+01
Br   -2.2771146375625024E+00    3.5156891333468185E+00   -3.6006240103984948E+00
Br   -3.3277598453452382E+00    1.4726344426878919E+00    1.3758979127205778E+01
Br   -3.3465999095064634E+00    1.7695483651704471E+01   -1.2481594608333669E+01
Br   -1.2377379658326524E+00    1.5637686295803610E+01   -2.0686580032585060E+00
Br   -4.3985638634307538E+00    1.4651006552760929E+01    1.0207039845212373E+01
Br    8.1280059563632037E+00   -1.0483280063299190E+01   -1.5168510250048502E+01
Br    9.7651870967298002E+00   -1.6969841336690092E+01   -2.3593795641027047E+00
Br    8.8059354643118439E+00   -1.6067726660153664E+01    8.9097836823531065E+00
Br    8.8241420927178638E+00    6.3970573652380652E-02   -1.2117958010636469E+01
Br    1.0251040580312294E+01   -1.1353899359033807E-01   -2.6616660367070937E+00
Br    1.0551707090805186E+01    2.0851662562372213E+00    1.2252788097379485E+01
Br    1.3480214277906649E+01    1.9021269829295591E+01   -1.0907854303935345E+01
Br    8.0994993918342981E+00    1.7321380552639962E+01   -5.0899817404191534E+00
Br    5.7421358287809383E+00    1.7733435029803772E+01    4.9964546840088842E+00
Br   -1.5825253794679323E+01   -1.5731603645834031E+01   -8.8760634623834083E+00
Br   -1.0993458881260432E+01   -1.4927096510302613E+01    3.2287489738855384E+00
Br   -1.7773646865329454E+01   -1.1806078492163747E+01    1.4828720970744133E+01
Br   -1.5538903612224717E+01    1.4100329568632530E+00   -8.1432347566762555E+00
Br   -1.7214751636934857E+01   -1.2935030651821169E+00    2.0287026345866646E+00
Br   -1.3138552831087035E+01   -2.5662747931241339E+00    1.4928226269103494E+01
Br   -1.5177959765809781E+01    1.7010838589172668E+01   -5.6415203147492194E+00
Br   -1.2902407200755528E+01    1.5005212960525297E+01    4.5566166461535147E+00
Br   -2.2219998116089922E+01    1.2817789898486893E+01    1.4887053317590258E+01
Br   -1.4416241945230390E+00   -1.4138334166631141E+01   -9.9920258761130967E+00
Br   -2.0748211402681358E+00   -1.5956473372044019E+01    2.0504801811330866E+00
Br   -1.4470693158614742E+00   -1.3772827172169229E+01    1.3321749251081393E+01
Br   -2.7244100301147882E+00    9.6348980354536840E-01   -9.3479499084366076E+00
Br   -5.9576838889347545E+00    6.1481611083449761E-01    6.3013027660118082E-01
Br   -5.5888550750302644E+00   -3.3395364639619629E+00    1.5002749025420913E+01
Br   -6.2504840428819470E+00    1.6277096899963034E+01   -6.0731305427915991E+00
Br   -1.0643237958102929E-01    1.3695417040542837E+01    2.8280738235575376E+00
Br   -3.2833871745455694E+00    1.5683838149607876E+01    1.6346652648001829E+01
Br    8.5497857856068844E+00   -1.4364281152678588E+01   -1.0624936683498211E+01
Br    1.0520112438696032E+01   -1.5110194404995902E+01    3.5307944650875980E+00
Br    9.2143777216369642E+00   -1.5815782808995065E+01    1.3665945678430125E+01
Br    8.1308266092939974E+00    8.9788455946972018E-02   -7.1059242708377202E+00
Br    7.5152430361886315E+00    4.8136627805431459E-01    1.1531099916306886E+00
Br    6.3396945280542969E+00   -3.1307132572733476E-01    1.6091091605859447E+01