 # Version information for this restart file 
 # current date 2020-12-23 14:58:16.268
 # current working dir /Users/bvanbeek/Downloads/MM_MD_workdir/md
 # Program compiled at                             Fri Apr 19 11:24:34 CEST 2019
 # Program compiled on                                             192.168.1.124
 # Program compiled for                           Darwin-IntelMacintosh-gfortran
 # Source code revision number                                         svn:18464
 &GLOBAL
   PRINT_LEVEL  LOW
   PROJECT_NAME cp2k
   RUN_TYPE  MD
 &END GLOBAL
 &MOTION
   &MD
     ENSEMBLE  NPT_F
     STEPS  10000
     TIMESTEP     2.4999999999999996E+00
     STEP_START_VAL  500
     TIME_START_VAL     1.2500000000000068E+03
     ECONS_START_VAL    -5.5495911227455137E+00
     TEMPERATURE     3.0000000000000000E+02
     &BAROSTAT
       PRESSURE     1.0100000000000000E+00
       TIMECON     4.9999999999999994E+02
       &VELOCITY
            -1.1173599553187402E-06    2.6041211949633147E-06   -2.9860930069451748E-06    2.6041211949633172E-06 \
             2.5318764649347937E-07    1.2348911006491349E-06   -2.9860930069451748E-06    1.2348911006491344E-06    4.6520843213556397E-07
       &END VELOCITY
       &MASS
             2.1920353963970435E+08    2.1920353963970435E+08    2.1920353963970435E+08    2.1920353963970435E+08 \
             2.1920353963970435E+08    2.1920353963970435E+08    2.1920353963970435E+08    2.1920353963970435E+08    2.1920353963970435E+08
       &END MASS
       &THERMOSTAT
         TYPE  CSVR
         &CSVR
           TIMECON     9.6755373060191392E+00
           &THERMOSTAT_ENERGY
                -2.6641207565266133E-03
           &END THERMOSTAT_ENERGY
           &RNG_INIT
Wiener process for Thermostat # 1        1 F T F   9.4380946372331231E-01        1810614026.0         417406437.0        2421081021.0        3661800906.0        1141876047.0         628275574.0             12345.0             12345.0             12345.0             12345.0             12345.0             12345.0             12345.0             12345.0             12345.0             12345.0             12345.0             12345.0
           &END RNG_INIT
         &END CSVR
       &END THERMOSTAT
     &END BAROSTAT
     &THERMOSTAT
       TYPE  CSVR
       &CSVR
         TIMECON     4.9999999999999994E+02
         &THERMOSTAT_ENERGY
              -6.8155713854328681E-01
         &END THERMOSTAT_ENERGY
         &RNG_INIT
Wiener process for Thermostat # 1        1 F T F   9.7022056640120435E-01        2224143238.0        2837758152.0        4017478147.0        3457013314.0        4017762160.0         403423318.0             12345.0             12345.0             12345.0             12345.0             12345.0             12345.0             12345.0             12345.0             12345.0             12345.0             12345.0             12345.0
         &END RNG_INIT
       &END CSVR
       &PRINT
         &TEMPERATURE  ON
           FILENAME 
           &EACH
             MD  10
           &END EACH
         &END TEMPERATURE
       &END PRINT
     &END THERMOSTAT
     &AVERAGES  T
       &RESTART_AVERAGES
         ITIMES_START  1
         AVECPU     6.5422191999852636E-02
         AVEHUGONIOT     0.0000000000000000E+00
         AVETEMP_BARO     4.7007666824324662E+02
         AVEPOT    -5.6732927454764992E+00
         AVEKIN     4.8512599092819153E-01
         AVETEMP     1.8947493998010722E+02
         AVEKIN_QM     0.0000000000000000E+00
         AVETEMP_QM     0.0000000000000000E+00
         AVEVOL     2.1791679379970836E+05
         AVECELL_A     5.3921060753722955E+01
         AVECELL_B     7.5816247882676564E+01
         AVECELL_C     5.3263823088401899E+01
         AVEALPHA     9.0518747256122552E+01
         AVEBETA     8.9747127168344036E+01
         AVEGAMMA     9.0495154245581801E+01
         AVE_ECONS    -9.4212764355015188E-01
         AVE_PRESS     1.5699728840910643E+00
         AVE_PXX    -2.1287809836511471E+01
       &END RESTART_AVERAGES
     &END AVERAGES
   &END MD
   &PRINT
     &TRAJECTORY  ON
       &EACH
         MD  10
       &END EACH
     &END TRAJECTORY
     &CELL  ON
       FILENAME 
       &EACH
         MD  10
       &END EACH
     &END CELL
     &FORCES  ON
       FILENAME 
       &EACH
         MD  10
       &END EACH
     &END FORCES
   &END PRINT
 &END MOTION
 &FORCE_EVAL
   METHOD  FIST
   STRESS_TENSOR  ANALYTICAL
   &MM
     &FORCEFIELD
       VDW_SCALE14     1.0000000000000000E+00
       EI_SCALE14     1.0000000000000000E+00
       SHIFT_CUTOFF  T
       DO_NONBONDED  T
       IGNORE_MISSING_CRITICAL_PARAMS  T
       &SPLINE
         R0_NB     1.0000000000000001E-01
       &END SPLINE
       &NONBONDED
         &LENNARD-JONES
           ATOMS Cs Cs
           EPSILON     2.2644852172126850E+01
           SIGMA     5.8500000000000005E+00
         &END LENNARD-JONES
         &LENNARD-JONES
           ATOMS Cs Pb
           EPSILON     8.6920055954630953E+01
           SIGMA     5.1000000000000005E+00
         &END LENNARD-JONES
         &LENNARD-JONES
           ATOMS Br Pb
           EPSILON     2.0528187276773045E+02
           SIGMA     2.9000000000000004E+00
         &END LENNARD-JONES
         &LENNARD-JONES
           ATOMS Br Cs
           EPSILON     5.3481070753900497E+01
           SIGMA     3.8500000000000005E+00
         &END LENNARD-JONES
         &LENNARD-JONES
           ATOMS Br Br
           EPSILON     1.2630795322675199E+02
           SIGMA     4.2599999999999998E+00
         &END LENNARD-JONES
         &LENNARD-JONES
           ATOMS Pb Pb
           EPSILON     3.3363415533600221E+02
           SIGMA     5.9800000000000004E+00
         &END LENNARD-JONES
       &END NONBONDED
       &CHARGE
         ATOM Cs
         CHARGE     2.0000000000000001E-01
       &END CHARGE
       &CHARGE
         ATOM Pb
         CHARGE     4.0000000000000002E-01
       &END CHARGE
       &CHARGE
         ATOM Br
         CHARGE    -2.0000000000000001E-01
       &END CHARGE
     &END FORCEFIELD
     &POISSON
       PERIODIC  XYZ
       &EWALD
         EWALD_TYPE  SPME
         GMAX  22
         O_SPLINE  4
       &END EWALD
     &END POISSON
     &PRINT
       &FF_INFO  LOW
         SPLINE_INFO  F
         SPLINE_DATA  F
       &END FF_INFO
     &END PRINT
   &END MM
   &SUBSYS
     &CELL
       A     2.8906296819265346E+01   -2.5779330868005607E-01    9.5672909460777708E-03
       B    -3.6774228706476181E-01    4.0710281964533920E+01   -1.3664856664254993E-01
       C    -3.0962626176768367E-02   -7.0009802539725774E-02    2.8866060298768431E+01
       PERIODIC  XYZ
       MULTIPLE_UNIT_CELL  1 1 1
     &END CELL
     &COORD
Br   -9.9910836242127665E+00    1.6840832553778633E+01   -1.3666053820888417E+00
Br   -8.9899457697783109E+00    1.7460486239632534E+01    9.3847554784367144E+00
Br    1.0673088726310813E+00   -1.0554081626436107E+01   -1.0326873696443215E+01
Br    9.8475803118959004E-01   -1.0691431089226654E+01    7.2863696060204852E-01
Br    7.7118256901346183E-01   -9.9665541748618267E+00    9.5790298423071949E+00
Br   -5.5840805918279046E-01    3.6670359246759339E+00   -8.5645289315773336E+00
Br   -3.2021524237740889E-01    3.1779349583418441E+00    8.6164944099674512E-01
Br   -8.3615889026775747E-01    3.6037664290919489E+00    9.8630072996172871E+00
Br    1.0882020993018284E+00    1.7148522859863281E+01   -9.6097519124230750E+00
Br    8.2964935968290898E-01    1.5982099016927460E+01    1.7240753206158739E+00
Br    2.5970612363328927E-01    1.7426932216650751E+01    9.1445278676451505E+00
Br    1.0904150900073313E+01   -1.0280923528036714E+01   -1.0160910219808480E+01
Br    9.1856093510543797E+00   -1.0083419420244541E+01    7.6118683386775729E-02
Br    1.0399485436243900E+01   -9.8656628230126202E+00    8.6879730995608995E+00
Br    9.3456039758642167E+00    3.6249593348452782E+00   -8.8748586066485622E+00
Br    9.6209849718768350E+00    2.1361282028266961E+00    6.1140508911439913E-02
Br    9.3580759575221322E+00    3.2186904267605492E+00    9.4075735523366806E+00
Br    8.7602709916109713E+00    1.7017438935649185E+01   -9.9815517592701752E+00
Br    9.1296870376453825E+00    1.6888448227184885E+01   -3.2403985890548820E-01
Br    1.0071381581065234E+01    1.8073478722659321E+01    8.8653760978235034E+00
Pb   -1.3428167347777357E+01   -1.1676775663574274E+01   -1.4773629849889248E+01
Pb   -1.4184166484699832E+01   -1.3374270085596958E+01   -4.1827861462135854E+00
Pb   -1.4088082034691391E+01   -1.2670448376469954E+01    4.5513781754431175E+00
Pb   -1.4653277547844947E+01    1.6057032227973518E+00   -1.4634485297426082E+01
Pb   -1.4018298036242321E+01    6.4284463801309732E-01   -4.3601361532558238E+00
Pb   -1.4536181548553369E+01    3.7328726746603913E-01    5.0500200007063283E+00
Pb   -1.4484544371568559E+01    1.4163176028629774E+01   -1.4328628998501230E+01
Pb   -1.5307939497937795E+01    1.3635811787740250E+01   -5.4404586261038128E+00
Pb   -1.4460155616338394E+01    1.4344796116279895E+01    4.2646717960617702E+00
Pb   -3.9193089307098967E+00   -1.3746059944043143E+01   -1.3939253436278269E+01
Pb   -4.3199572341012802E+00   -1.3801677079685895E+01   -4.9627148992379286E+00
Pb   -4.8636334880474381E+00   -1.3055531481982566E+01    5.0295251133142420E+00
Pb   -4.6191711189095663E+00    7.8923764478904201E-01   -1.4899864012229441E+01
Pb   -4.3522308371159362E+00    2.3990735989854839E-01   -4.3121642175366244E+00
Pb   -5.0086243637864474E+00    1.1899833903143582E-01    4.8311582387302714E+00
Pb   -5.1979848438306213E+00    1.3979712699373582E+01   -1.4236001357637720E+01
Pb   -4.6953568937085457E+00    1.3582131570634507E+01   -5.3530284668564407E+00
Pb   -5.2726846673402656E+00    1.3795580063072597E+01    4.2967428731399506E+00
Pb    6.3485360648939793E+00   -1.3394229770122886E+01   -1.5069564089354680E+01
Pb    4.6328831690823309E+00   -1.3965119036079434E+01   -4.2388253823889848E+00
Pb    4.9504513900241847E+00   -1.3333203793491849E+01    4.8623119426391188E+00
Pb    5.2215601592775949E+00   -2.4366492810139692E-01   -1.4196129197344739E+01
Pb    4.9327107413107800E+00   -5.4987967918886327E-01   -4.6653065766148707E+00
Pb    4.9898183444708248E+00   -5.3408553414132520E-01    5.0227525131880117E+00
Pb    4.2213831337173682E+00    1.3569641973656212E+01   -1.4983546245359365E+01
Pb    4.8307216834414133E+00    1.3167323658223408E+01   -4.4644141365626311E+00
Pb    4.2325930178496147E+00    1.2649546245003831E+01    5.0188458818765964E+00
Pb   -9.6857619080060608E+00   -1.2777400093574590E+01   -9.2951439646189460E+00
Pb   -8.2483661662168135E+00   -1.3203797151862148E+01   -5.9585201843361379E-01
Pb   -9.8326809133016511E+00   -1.4040604344733115E+01    9.3684672548662338E+00
Pb   -1.0538154489944375E+01    1.1664486360739044E+00   -9.5680185049643782E+00
Pb   -1.0000300805548568E+01    1.7438838357268333E-01    7.0561568855937662E-01
Pb   -1.0232980292781185E+01    4.9470492917277270E-01    9.6008029242452952E+00
Pb   -9.6213613473705220E+00    1.4080038315964462E+01   -9.0342709301753263E+00
Pb   -9.8653886555937884E+00    1.3973589711768023E+01    7.5015922774660959E-02
Pb   -1.0427025550296264E+01    1.3887206856340267E+01    9.5202589582476449E+00
Pb    2.7513817920544920E-01   -1.3834462124215348E+01   -8.5640859033926144E+00
Pb    5.3319233447501746E-01   -1.3764936171897089E+01    4.1485675662034127E-01
Pb    4.6671239601884129E-01   -1.3794850213408663E+01    9.2362840356066460E+00
Pb   -7.3159048738680949E-03   -8.6633849756056514E-01   -8.9235285111203719E+00
Pb    5.0896725147255195E-01   -5.9854646883038276E-01    1.7026362573632431E-01
Pb    5.6946248139989031E-01   -2.9365081368863122E-01    9.8428504821300500E+00
Pb    5.7895383327653349E-01    1.3625351216802706E+01   -9.5474843310913542E+00
Pb    4.5974350350256018E-03    1.3365258169922086E+01    2.4054664565068749E-02
Pb   -4.1952129283903794E-01    1.3759387266882039E+01    9.2362565481198136E+00
Pb    1.0766589469453042E+01   -1.3180454049913926E+01   -9.6065983283040151E+00
Pb    9.6382918002202143E+00   -1.3250030846438735E+01   -3.1603768736687993E-01
Pb    9.8685011262762696E+00   -1.3441577121689694E+01    8.5198379821922572E+00
Pb    9.2513552114050164E+00    2.5145701599138898E-01   -9.4692141689116305E+00
Pb    9.3231132496757851E+00   -9.0670024521328751E-01   -1.8632199069552235E-01
Pb    9.3707017596970061E+00   -1.7135988020224363E-01    9.9098716853644113E+00
Pb    8.9557591765615694E+00    1.3994269085705575E+01   -9.5396211722836473E+00
Pb    9.5378786012207453E+00    1.3848519963136075E+01   -2.4182109523607107E-01
Pb    9.5941239315444946E+00    1.2933748107303977E+01    9.4210880898592126E+00
Pb   -1.5160214770455443E+01   -2.0470864012647244E+01   -1.4315616009992752E+01
Pb   -1.4424987715215540E+01   -2.0345141002839799E+01   -4.7134993728956847E+00
Pb   -1.4040936889233322E+01   -1.9962112731131512E+01    4.4094111040573214E+00
Pb   -1.4496664541485179E+01   -5.0726372456571225E+00   -1.4666614115322991E+01
Pb   -1.4554612711838928E+01   -6.6204760471943622E+00   -5.0486451984064074E+00
Pb   -1.4952282435788414E+01   -6.5716576331181118E+00    4.4086393812708051E+00
Pb   -1.4910822558927713E+01    7.6946683666936178E+00   -1.4927780564300837E+01
Pb   -1.4008864616533661E+01    7.8053865915323248E+00   -4.6351545537165197E+00
Pb   -1.4203555544265580E+01    7.1003751926959646E+00    4.5761146588133590E+00
Pb   -4.3291172631867783E+00   -2.0574412604020363E+01   -1.5406135743109351E+01
Pb   -4.7518251334595654E+00   -2.0386872170768271E+01   -5.1815274323752725E+00
Pb   -4.8500745183636527E+00   -1.9973744926168301E+01    4.7312534127673533E+00
Pb   -3.9972104818617504E+00   -5.3208282382367065E+00   -1.3449167482397883E+01
Pb   -4.2268339558439081E+00   -6.9881432392371652E+00   -3.7841596748979169E+00
Pb   -4.8315274245029585E+00   -6.5825941166651951E+00    5.3626774947856202E+00
Pb   -4.6641937437416461E+00    7.1397479938933746E+00   -1.4003543910031505E+01
Pb   -4.1106087307956010E+00    6.4620621095090911E+00   -4.7542121646842244E+00
Pb   -5.6465498268973207E+00    7.2290848741609173E+00    5.6136298889517802E+00
Pb    5.3938265935595870E+00   -1.9523881066953219E+01   -1.4997244125871376E+01
Pb    4.5602371353790652E+00   -2.0688341935367490E+01   -4.2335861247659938E+00
Pb    5.3669146056451096E+00   -2.0514109107539955E+01    4.2360071801620691E+00
Pb    5.6683100455252067E+00   -6.9794441224193324E+00   -1.4544865954970604E+01
Pb    4.2769176115941354E+00   -7.0663200161875359E+00   -4.8903437208196081E+00
Pb    4.4030989947458687E+00   -6.9726920231427689E+00    4.9200464151416812E+00
Pb    5.1992002859813304E+00    7.1014662945568885E+00   -1.3974951390116868E+01
Pb    4.4406240380664537E+00    6.0099705055604238E+00   -4.4927494809540800E+00
Pb    4.4957373571504657E+00    5.8169865177584255E+00    4.8094916852299647E+00
Pb   -1.0130321982654568E+01   -2.0366090299074862E+01   -9.6466154273664788E+00
Pb   -9.2140533165432696E+00   -2.0172907448041897E+01   -8.0278258968632177E-01
Pb   -1.0341692790964039E+01   -2.0173355980389616E+01    9.9898778307609106E+00
Pb   -9.0681598854139409E+00   -6.0652048363655782E+00   -9.9815067377310083E+00
Pb   -9.3092772661450294E+00   -6.3833585129642980E+00   -2.1253563050946092E-01
Pb   -9.1798995966669121E+00   -5.4408141407265340E+00    9.5126602094623447E+00
Pb   -1.0276999321304622E+01    7.5181184879425187E+00   -1.0025414006713433E+01
Pb   -9.4688005969724038E+00    7.0987338699881626E+00    4.4164248351059315E-01
Pb   -9.9662340299411625E+00    7.4203750071605610E+00    9.5919896626898549E+00
Pb    5.3919410881786167E-01   -2.0531662231138771E+01   -9.3805634212977260E+00
Pb    2.5976874406802297E-01   -2.0345229229981225E+01    4.7133498416919251E-01
Pb    4.6324999825634167E-01   -2.0024094201635044E+01    9.3003229783692447E+00
Pb    9.5829703821154677E-01   -6.9590800291472927E+00   -1.0212182282040875E+01
Pb    3.4878466152143911E-01   -7.3154492460008536E+00    2.8349541865452776E-01
Pb    1.9994647337581950E-01   -6.6670102205565724E+00    1.0222333155127448E+01
Pb   -1.4991759194270649E-01    6.6852322446270094E+00   -8.8566434236212945E+00
Pb    8.7479696318067984E-02    6.1740287413348653E+00    2.6890786995622994E-02
Pb   -1.4018430248971400E-01    6.6763956740501218E+00    9.4306438001043880E+00
Pb    1.0088554752877982E+01   -2.0065473302800861E+01   -9.0639763880122572E+00
Pb    9.9801396228868597E+00   -2.0726717940384312E+01   -4.7352513111248795E-01
Pb    1.0087882493534675E+01   -1.9711589743033429E+01    8.9317946496203309E+00
Pb    9.6671616235854803E+00   -5.9576693137648862E+00   -9.7485882356066202E+00
Pb    9.1267156824281397E+00   -6.7360897810398930E+00   -4.1454032735061336E-01
Pb    9.8951911989054633E+00   -6.9872610761752023E+00    9.5885165354602169E+00
Pb    9.2988216253996061E+00    7.0506391987549506E+00   -9.1382490332756205E+00
Pb    9.3831976251981395E+00    6.2202892618053687E+00    3.7600336534860296E-01
Pb    9.2637733104326720E+00    6.6730670687117044E+00    9.4008891528513878E+00
Cs   -8.6258211402883216E+00   -1.6538772857144686E+01   -1.3797176777265955E+01
Cs   -1.0084182635803861E+01   -1.6752557216098349E+01   -4.7101187265788012E+00
Cs   -9.9511570899409385E+00   -1.5762465395360239E+01    4.7293469157754142E+00
Cs   -8.8516942771783889E+00   -2.1389770550617024E+00   -1.3226700151157715E+01
Cs   -9.9364888390227968E+00   -3.0261278700085414E+00   -4.3546203478663017E+00
Cs   -9.6398368960445318E+00   -3.2117436237384620E+00    4.5933421431685710E+00
Cs   -1.0584786080442509E+01    1.0724007418336663E+01   -1.4434967232334705E+01
Cs   -9.1522460453052776E+00    1.0673500212709119E+01   -5.2954817937916756E+00
Cs   -1.0039870262864547E+01    1.0679214146237006E+01    4.5906834261874847E+00
Cs    4.5911211240245509E-01   -1.6719200884236926E+01   -1.4601346875844621E+01
Cs   -2.0406212054866257E-01   -1.6588007380546248E+01   -4.4915056364773838E+00
Cs   -1.8565788308854103E-01   -1.7430865459671381E+01    4.6393366827133935E+00
Cs    1.8597381393274659E-01   -2.9135555825115098E+00   -1.4325540759024593E+01
Cs   -2.7526313424556270E-01   -4.2588604399357539E+00   -5.2922844502303708E+00
Cs   -4.6832850535816617E-01   -3.8355706824954483E+00    4.5622730987178919E+00
Cs   -4.6652353346675240E-01    1.0699829346602142E+01   -1.5070346087243180E+01
Cs    5.1059402944076515E-01    9.3371640354013685E+00   -4.2951253649584498E+00
Cs   -9.2911036866905650E-01    1.0163776004750019E+01    4.6182741461993464E+00
Cs    1.0253255683883886E+01   -1.6350305236613924E+01   -1.4660110389719881E+01
Cs    1.0010510405352527E+01   -1.7005395256018911E+01   -4.5099311005691076E+00
Cs    9.3841588263386626E+00   -1.6639224700373848E+01    4.1945412689399131E+00
Cs    9.1931499254829472E+00   -2.8697320087352058E+00   -1.5248120871421445E+01
Cs    9.9032240781868914E+00   -3.7480167368241846E+00   -4.6338911213373803E+00
Cs    9.0409288744970357E+00   -4.0121062219414991E+00    4.9545268972369296E+00
Cs    9.1305272388595142E+00    1.0271852701932245E+01   -1.4223597456238437E+01
Cs    9.1910369000592418E+00    9.8523373080148531E+00   -4.6115435463761951E+00
Cs    8.7210889294870704E+00    1.0173572983371644E+01    4.2324250171972810E+00
Cs   -4.4094868298334644E+00   -1.0236850550895710E+01   -9.2418880844216744E+00
Cs   -3.9296718944667108E+00   -9.1396006736722466E+00    8.4613387768805748E-01
Cs   -5.2568523342478004E+00   -9.7030081614200530E+00    9.1572750491514956E+00
Cs   -4.7894814817414417E+00    2.4126909894238935E+00   -9.0149754203276782E+00
Cs   -3.8088593692933430E+00    2.7821990883032650E+00   -9.0246884951939041E-02
Cs   -4.4765732910471465E+00    3.9136315017614884E+00    9.5731972875959883E+00
Cs   -4.6341032017729384E+00    1.6936635796236182E+01   -9.5124246503938004E+00
Cs   -4.3140851813988430E+00    1.7030028597056148E+01   -7.9588224448492584E-01
Cs   -5.2810214998325256E+00    1.7398444617664644E+01    9.2632368784176720E+00
Cs    4.7355606846756713E+00   -1.0883503053482332E+01   -1.1232579288949522E+01
Cs    4.9414032607631242E+00   -1.0381459479811262E+01   -4.9692465892099136E-01
Cs    5.1468232425676383E+00   -1.0343731567121404E+01    9.4071975590550760E+00
Cs    4.6319524374484899E+00    3.3241970234405240E+00   -9.8135799349685424E+00
Cs    5.3779746034084734E+00    2.9228432199650274E+00   -5.3586080069881166E-03
Cs    5.1038893580286597E+00    3.4889665762345965E+00    9.6478363570881989E+00
Cs    4.9237375795036522E+00    1.7540104254790833E+01   -9.7162226642325589E+00
Cs    4.8255569241434397E+00    1.6395196057492303E+01    9.7536005442707963E-01
Cs    5.1612679697291144E+00    1.7461018914717087E+01    9.3283879888176404E+00
Cs    1.4669338169070569E+01   -9.8319486690495381E+00   -9.5459044632923131E+00
Cs    1.4538722797859315E+01   -9.2465244630767813E+00    3.5784648361667148E-01
Cs    1.4905121707845613E+01   -8.9820748775636741E+00    9.5094641640636492E+00
Cs    1.4649513690363502E+01    3.8298164693528589E+00   -9.3853414365658683E+00
Cs    1.4068279762757918E+01    2.9042960234331203E+00    4.8624054902812031E-01
Cs    1.4501580135286439E+01    3.4466414441335544E+00    9.1307447039546545E+00
Cs    1.3939637480134111E+01    1.6549748352984622E+01   -9.5536025641869688E+00
Cs    1.4891951774535398E+01    1.6637445778830845E+01   -1.0233237043947834E+00
Cs    1.3024301284323691E+01    1.6739594635423682E+01    1.0439807788634825E+01
Cs   -8.9795359339219214E+00   -9.2868726514628452E+00   -4.5772680061056379E+00
Cs   -9.2064995538781975E+00   -8.9895789861103754E+00    5.2106799264774413E+00
Cs   -8.1625604231537601E+00   -9.4636779009497438E+00    1.4634545418724368E+01
Cs   -9.2936010058029463E+00    3.3942442374393473E+00   -4.4835714848413621E+00
Cs   -1.0054218843522866E+01    3.5112352528027038E+00    5.1831713612468269E+00
Cs   -9.3103587873751223E+00    3.9192832137527454E+00    1.3739699273979589E+01
Cs   -9.5911041519847160E+00    1.7188029893127961E+01   -5.2761964728518089E+00
Cs   -9.9152890012467907E+00    1.7882883110646848E+01    5.4906332816475540E+00
Cs   -9.6608070162323187E+00    1.6640781379222830E+01    1.4902748423554469E+01
Cs    4.0115474932236805E-01   -1.1001322561671705E+01   -4.2893372517255761E+00
Cs    4.1172576388304440E-02   -9.7456889104738931E+00    4.9921974476587936E+00
Cs   -1.0239528449792972E+00   -9.7644369002987581E+00    1.3890416987243229E+01
Cs   -1.0369121938668231E-01    2.3594011633566416E+00   -4.3693071886150188E+00
Cs    7.6907892551903245E-01    2.8223349188846671E+00    4.8662611281039743E+00
Cs   -1.6432141593367311E-01    3.0353544706763254E+00    1.3641603874967753E+01
Cs   -2.2603739292726624E-01    1.8248353364712347E+01   -5.0543754152175833E+00
Cs   -1.3158595254554819E+00    1.7406695807463109E+01    4.9346907411826235E+00
Cs   -5.2123650689139378E-01    1.7287297417124481E+01    1.3438436715983276E+01
Cs    8.6704734414132947E+00   -1.0899315217718016E+01   -5.9618914284132094E+00
Cs    9.8007257152759415E+00   -1.0025970407816109E+01    4.1905180576664325E+00
Cs    1.0806232670441190E+01   -1.0178290412329623E+01    1.4064845153180702E+01
Cs    1.0517349923183895E+01    3.2367742412253380E+00   -4.5622480753099106E+00
Cs    9.5020099999697045E+00    2.8069584542589210E+00    4.3772612822268337E+00
Cs    9.2658306877065346E+00    2.9578081968797538E+00    1.5062533233556277E+01
Cs    9.3722965075834637E+00    1.7224620379281696E+01   -4.8095050386577247E+00
Cs    1.0224188312223864E+01    1.7781063119375521E+01    4.5322546167548552E+00
Cs    8.6974982959272005E+00    1.7232185576883008E+01    1.4265198559541492E+01
Cs   -1.3893128849399385E+01   -1.6274655540478879E+01   -9.6015696827324479E+00
Cs   -1.5150750300847507E+01   -1.6417935621028395E+01   -1.9362641346905904E-01
Cs   -1.4110083202171195E+01   -1.6874446961802445E+01    9.6598929045058899E+00
Cs   -1.4834165948755910E+01   -2.3637079015376430E+00   -8.9493099913713667E+00
Cs   -1.4693582248803962E+01   -3.4192283241999735E+00    2.3531721137905923E-01
Cs   -1.5369931274494316E+01   -2.8308313114614090E+00    8.7065773110933744E+00
Cs   -1.5221253655525640E+01    1.1032995156773456E+01   -1.0039427111963541E+01
Cs   -1.4194397584875707E+01    1.0039697707900816E+01   -5.0657911868404537E-01
Cs   -1.5097255038316817E+01    1.0156384021961149E+01    9.1674449797124158E+00
Cs   -5.0178016053139478E+00   -1.8228169102199413E+01   -9.4520721026461256E+00
Cs   -3.9127771343528281E+00   -1.6990587903877966E+01   -5.0940084166169786E-01
Cs   -5.0393129887964214E+00   -1.6228826857699165E+01    9.7265229713378769E+00
Cs   -5.8097128487218717E+00   -3.0510867264039239E+00   -8.5365043268048684E+00
Cs   -5.0847543684620273E+00   -2.9738382113449244E+00   -1.1195915905237165E-01
Cs   -4.2598970893286889E+00   -2.9250076867390775E+00    8.7950684108140766E+00
Cs   -4.8863257817849011E+00    9.9480090504390652E+00   -9.4999258680975949E+00
Cs   -4.6213400882069049E+00    1.0285742554824525E+01   -7.7549305088296572E-01
Cs   -4.4286519332792658E+00    1.1002629347623746E+01    1.0086969387197362E+01
Cs    5.0206395337454337E+00   -1.7420018697041563E+01   -9.8745064072506192E+00
Cs    6.4388321227386536E+00   -1.7176398269006533E+01   -3.5444822489357992E-02
Cs    4.9686975108976252E+00   -1.6687841496985349E+01    9.7663454731015396E+00
Cs    4.9676408292940675E+00   -3.7423357325959565E+00   -9.7678889256323433E+00
Cs    4.2972577443739022E+00   -3.8661750614015973E+00   -2.2296216975615360E-01
Cs    4.4151726600973333E+00   -3.8852952725508541E+00    9.2739534726161246E+00
Cs    4.2749377677339355E+00    1.0394106319632288E+01   -9.5014637111767239E+00
Cs    4.1754769679954178E+00    9.5535845937966037E+00    3.7848603505098571E-01
Cs    4.8241950328329706E+00    8.8290710960834708E+00    9.2034324193666226E+00
Br   -1.1763762702908416E+01   -1.2371133204984480E+01   -1.2353120749389300E+01
Br   -1.1220706640957628E+01   -1.3797661976703797E+01   -2.7120999882078833E+00
Br   -1.0958273467672383E+01   -1.2845433645617296E+01    7.1480764638639673E+00
Br   -1.1837665702281894E+01    2.4244256039914607E+00   -1.2412446902481161E+01
Br   -1.1197373435437694E+01    2.1068609265699303E-01   -2.5923671641497523E+00
Br   -1.2476649331349027E+01    7.0350022324524719E-01    7.2408833981655558E+00
Br   -1.2964002933902645E+01    1.3620570771364273E+01   -1.1675816811065474E+01
Br   -1.2333895150973444E+01    1.3622925642853515E+01   -2.3871928015371289E+00
Br   -1.3433900597606719E+01    1.4944757070562385E+01    7.8382488847705316E+00
Br   -5.9440979247631009E-01   -1.3711828518874626E+01   -1.2539603658051471E+01
Br   -1.4544655927054595E+00   -1.3304142016790003E+01   -2.0580784963575929E+00
Br   -2.2363086583922018E+00   -1.3239064255810115E+01    7.7173327060436705E+00
Br   -2.2134439435158972E+00   -5.0647975302430925E-01   -1.2197245471029893E+01
Br   -1.9894012219260768E+00    3.7089713171692379E-01   -1.8051199709688024E+00
Br   -1.2180251131190005E+00   -8.4525321502290229E-01    7.3776659915844878E+00
Br   -2.9767542520518715E+00    1.5006514942667389E+01   -1.1707069408663788E+01
Br   -2.3321856322841641E+00    1.4123386453639649E+01   -2.0765531900167429E+00
Br   -2.9295893838723610E+00    1.3906886778584617E+01    7.6954542439859148E+00
Br    7.6672349306341347E+00   -1.3618545941696730E+01   -1.2768508357393273E+01
Br    7.1914891733520507E+00   -1.3496168468161388E+01   -2.8856109669883461E+00
Br    7.6134714096763849E+00   -1.3783818769316198E+01    6.4864707027533726E+00
Br    7.5627147565810136E+00   -2.5452216612530204E-01   -1.2239927824571931E+01
Br    7.0598919870623185E+00    3.0464880245282938E-01   -2.6570103840980428E+00
Br    7.6840368836825697E+00   -6.2996817777643932E-01    7.1541768402732817E+00
Br    6.5154749168664212E+00    1.2982901685594532E+01   -1.2543463062638819E+01
Br    6.9252237628093036E+00    1.4117531627840124E+01   -2.2954218340504164E+00
Br    6.9448331943859234E+00    1.2822236391006497E+01    7.1614661624291802E+00
Br   -1.2028080165221372E+01   -1.4330927460657694E+01   -7.2140743869434587E+00
Br   -1.3239963353611053E+01   -1.2436738748193671E+01    1.1339701340325608E+00
Br   -1.1009032618466879E+01   -1.2809203339706482E+01    1.1634259869330670E+01
Br   -1.2457031376065347E+01    1.3296301753809374E+00   -7.5709782250255948E+00
Br   -1.2477588199255930E+01   -1.8765626589555010E-01    2.7079928652891176E+00
Br   -1.2803390760866062E+01    6.7298345605450882E-01    1.1621139621656527E+01
Br   -1.1775078100654429E+01    1.4151020445412465E+01   -6.7935340825695194E+00
Br   -1.1788069200681649E+01    1.3733196370596378E+01    2.5835829569092827E+00
Br   -1.2624350048251751E+01    1.2902681210083289E+01    1.2509780781408029E+01
Br   -2.0332275206545272E+00   -1.2647164904742718E+01   -6.6221747577730312E+00
Br   -2.5802923837284841E+00   -1.2410671984579196E+01    3.2792121606481874E+00
Br   -1.8598628454098380E+00   -1.3255676682946511E+01    1.2333640079895982E+01
Br   -2.5061284369076073E+00   -2.9729986549820175E-01   -6.9989569016437150E+00
Br   -3.0944006458222120E+00   -6.1700283029540537E-01    2.5323485277871280E+00
Br   -1.3046206920090238E+00   -1.4542894453873775E-01    1.2473023904058573E+01
Br   -1.8495924103895540E+00    1.4133780847071939E+01   -7.0117944331152149E+00
Br   -2.7130504009337590E+00    1.4113519957888759E+01    3.0112688684140982E+00
Br   -3.3505912321255487E+00    1.4095740000413677E+01    1.2359876778581388E+01
Br    6.7496449314452889E+00   -1.3654802227618552E+01   -7.1307369144012167E+00
Br    6.4129437791368993E+00   -1.3158179863616882E+01    1.7243059126217821E+00
Br    7.6578534869481576E+00   -1.3639108242254435E+01    1.1080540075303626E+01
Br    6.7616376386342267E+00   -5.3060971566290860E-01   -7.4944035765140482E+00
Br    6.6131317071053957E+00   -6.3361746881596903E-01    2.5349216780840571E+00
Br    7.6881361045366976E+00    5.9517885301849227E-01    1.2630640379267705E+01