 # Version information for this restart file 
 # current date 2020-12-23 15:01:33.806
 # current working dir /Users/bvanbeek/Downloads/MM_MD_workdir/md
 # Program compiled at                             Fri Apr 19 11:24:34 CEST 2019
 # Program compiled on                                             192.168.1.124
 # Program compiled for                           Darwin-IntelMacintosh-gfortran
 # Source code revision number                                         svn:18464
 &GLOBAL
   PRINT_LEVEL  LOW
   PROJECT_NAME cp2k
   RUN_TYPE  MD
 &END GLOBAL
 &MOTION
   &MD
     ENSEMBLE  NPT_F
     STEPS  10000
     TIMESTEP     2.4999999999999996E+00
     STEP_START_VAL  7000
     TIME_START_VAL     1.7499999999998578E+04
     ECONS_START_VAL    -5.5495911227455137E+00
     TEMPERATURE     3.0000000000000000E+02
     &BAROSTAT
       PRESSURE     1.0100000000000000E+00
       TIMECON     4.9999999999999994E+02
       &VELOCITY
             2.7784069560739830E-06    5.9520648189912509E-07   -8.4241900899960126E-07    5.9520648189912573E-07 \
             3.9913144868655267E-06   -1.5353242881784435E-06   -8.4241900899960168E-07   -1.5353242881784435E-06    2.5082295827051409E-06
       &END VELOCITY
       &MASS
             2.1920353963970435E+08    2.1920353963970435E+08    2.1920353963970435E+08    2.1920353963970435E+08 \
             2.1920353963970435E+08    2.1920353963970435E+08    2.1920353963970435E+08    2.1920353963970435E+08    2.1920353963970435E+08
       &END MASS
       &THERMOSTAT
         TYPE  CSVR
         &CSVR
           TIMECON     9.6755373060191392E+00
           &THERMOSTAT_ENERGY
                 3.9785988542698647E-01
           &END THERMOSTAT_ENERGY
           &RNG_INIT
Wiener process for Thermostat # 1        1 F T F   1.0700247872910491E+00         446835057.0         176440886.0        3535753585.0         556248757.0         713166809.0        1610136137.0             12345.0             12345.0             12345.0             12345.0             12345.0             12345.0             12345.0             12345.0             12345.0             12345.0             12345.0             12345.0
           &END RNG_INIT
         &END CSVR
       &END THERMOSTAT
     &END BAROSTAT
     &THERMOSTAT
       TYPE  CSVR
       &CSVR
         TIMECON     4.9999999999999994E+02
         &THERMOSTAT_ENERGY
              -3.5154087254075579E+00
         &END THERMOSTAT_ENERGY
         &RNG_INIT
Wiener process for Thermostat # 1        1 F T F  -3.6832828280718016E-01        2041217215.0          53148611.0         994019519.0        2444483777.0        2410597118.0         544584127.0             12345.0             12345.0             12345.0             12345.0             12345.0             12345.0             12345.0             12345.0             12345.0             12345.0             12345.0             12345.0
         &END RNG_INIT
       &END CSVR
       &PRINT
         &TEMPERATURE  ON
           FILENAME 
           &EACH
             MD  10
           &END EACH
         &END TEMPERATURE
       &END PRINT
     &END THERMOSTAT
     &AVERAGES  T
       &RESTART_AVERAGES
         ITIMES_START  1
         AVECPU     3.2896460428567635E-02
         AVEHUGONIOT     0.0000000000000000E+00
         AVETEMP_BARO     1.0121459984376788E+03
         AVEPOT    -4.5081820068824436E+00
         AVEKIN     6.6358144745129832E-01
         AVETEMP     2.5917402340613302E+02
         AVEKIN_QM     0.0000000000000000E+00
         AVETEMP_QM     0.0000000000000000E+00
         AVEVOL     1.6865468806195397E+07
         AVECELL_A     1.8319158090729482E+02
         AVECELL_B     2.0394252826582468E+02
         AVECELL_C     1.1224795754189890E+02
         AVEALPHA     7.9275755680772235E+01
         AVEBETA     1.0238124323632847E+02
         AVEGAMMA     9.9720642639427084E+01
         AVE_ECONS    -1.4363967072055406E+00
         AVE_PRESS     3.6437431806933906E+00
         AVE_PXX     3.0928779649341513E+00
       &END RESTART_AVERAGES
     &END AVERAGES
   &END MD
   &PRINT
     &TRAJECTORY  ON
       &EACH
         MD  10
       &END EACH
     &END TRAJECTORY
     &CELL  ON
       FILENAME 
       &EACH
         MD  10
       &END EACH
     &END CELL
     &FORCES  ON
       FILENAME 
       &EACH
         MD  10
       &END EACH
     &END FORCES
   &END PRINT
 &END MOTION
 &FORCE_EVAL
   METHOD  FIST
   STRESS_TENSOR  ANALYTICAL
   &MM
     &FORCEFIELD
       VDW_SCALE14     1.0000000000000000E+00
       EI_SCALE14     1.0000000000000000E+00
       SHIFT_CUTOFF  T
       DO_NONBONDED  T
       IGNORE_MISSING_CRITICAL_PARAMS  T
       &SPLINE
         R0_NB     1.0000000000000001E-01
       &END SPLINE
       &NONBONDED
         &LENNARD-JONES
           ATOMS Cs Cs
           EPSILON     2.2644852172126850E+01
           SIGMA     5.8500000000000005E+00
         &END LENNARD-JONES
         &LENNARD-JONES
           ATOMS Cs Pb
           EPSILON     8.6920055954630953E+01
           SIGMA     5.1000000000000005E+00
         &END LENNARD-JONES
         &LENNARD-JONES
           ATOMS Br Pb
           EPSILON     2.0528187276773045E+02
           SIGMA     2.9000000000000004E+00
         &END LENNARD-JONES
         &LENNARD-JONES
           ATOMS Br Cs
           EPSILON     5.3481070753900497E+01
           SIGMA     3.8500000000000005E+00
         &END LENNARD-JONES
         &LENNARD-JONES
           ATOMS Br Br
           EPSILON     1.2630795322675199E+02
           SIGMA     4.2599999999999998E+00
         &END LENNARD-JONES
         &LENNARD-JONES
           ATOMS Pb Pb
           EPSILON     3.3363415533600221E+02
           SIGMA     5.9800000000000004E+00
         &END LENNARD-JONES
       &END NONBONDED
       &CHARGE
         ATOM Cs
         CHARGE     2.0000000000000001E-01
       &END CHARGE
       &CHARGE
         ATOM Pb
         CHARGE     4.0000000000000002E-01
       &END CHARGE
       &CHARGE
         ATOM Br
         CHARGE    -2.0000000000000001E-01
       &END CHARGE
     &END FORCEFIELD
     &POISSON
       PERIODIC  XYZ
       &EWALD
         EWALD_TYPE  SPME
         GMAX  22
         O_SPLINE  4
       &END EWALD
     &END POISSON
     &PRINT
       &FF_INFO  LOW
         SPLINE_INFO  F
         SPLINE_DATA  F
       &END FF_INFO
     &END PRINT
   &END MM
   &SUBSYS
     &CELL
       A     3.7786328576184292E+02   -1.1135233154960784E+02   -9.0722743709630407E+01
       B    -1.4259328409772039E+02    3.8353218450522337E+02    8.2312087854089881E+01
       C    -9.1074045602509855E+01    6.5523925546257217E+01    1.6375603602535111E+02
       PERIODIC  XYZ
       MULTIPLE_UNIT_CELL  1 1 1
     &END CELL
     &COORD
Br   -1.8526264768734359E+02    1.9114624390967225E+02    8.3112690323639953E+01
Br   -2.2379305847407673E+02    2.1865907726170488E+02    1.4471276714736337E+02
Br    4.3465806878387482E+01   -1.3187183350909757E+02   -5.3590852744658335E+01
Br   -5.3692842686222527E+01   -4.5867492981952310E+01    2.6877322775251824E+00
Br    6.5763913292929374E+01   -9.2003463031973112E+01    1.8542929920360389E+00
Br    3.3516714683450786E+01   -4.5629774996250552E+00   -6.4098834726890644E+01
Br   -2.3709964688059961E+00    3.2522646863605300E+00   -1.6989138083228969E+01
Br   -1.3297056462213339E+01    1.1758056295815910E+01    4.3131833315457783E+01
Br   -5.4857250549538129E+01    1.2610836143323203E+02    2.9034919547129284E+01
Br   -6.1135043971233060E+01    1.4618602883516081E+02    6.1637576291421908E+01
Br   -7.8037026468953840E+01    1.4417231141919152E+02    8.1328172039635888E+01
Br    1.5665189940258529E+02   -1.5685402854982726E+02   -1.0190711563087120E+02
Br    1.1580822947285056E+02   -6.4995663467479758E+01   -2.5625478780075429E+01
Br    1.5966158869063926E+02   -1.1825501130455503E+02   -1.4369084421204301E+01
Br    1.2111449865777017E+02   -4.2988335721980484E+01   -5.0262363242623771E+01
Br    1.2011609034307833E+02   -1.8355511403362225E+01   -2.8870937184207786E+01
Br    5.5785753034054267E+01    2.2369217952094051E+01   -2.6781822188197504E+00
Br    7.1294138663819254E+01    1.4496275934819255E+02   -1.6771746484296411E+01
Br    1.3508136198250986E+02    1.3439323212999483E+02   -2.2282118591380126E+01
Br    2.2879411541140886E+01    1.0343986878876427E+02    3.4837643293591277E+01
Pb   -1.4836321044989964E+02   -6.8414679566771611E+01   -4.7778702295877203E+01
Pb   -8.6558849062465086E+01   -1.0333908984245511E+02    1.5609573662222481E+01
Pb   -1.7829308328650475E+02   -3.1695162870914412E+01    6.8697390144882519E+01
Pb   -5.0092560965848442E+01   -1.0640285898413389E+02   -9.7410667687740386E+01
Pb   -1.9773864654185633E+02    6.1323593734709007E+01    2.3771825443860841E+01
Pb   -1.3929706103655226E+02    1.6368452701255620E+01    4.0715398865018756E+01
Pb   -2.5397909910868017E+02    1.2025021283477585E+02   -3.5822992925530013E+00
Pb   -2.0388839545764662E+02    1.8577614264351615E+02    4.1624469192663817E+01
Pb   -1.9115954763454496E+02    1.6744953746441342E+02    8.5309552007380631E+01
Pb    3.4220468067608103E+01   -1.4182593226185097E+02   -8.1370674749213492E+01
Pb   -8.9512301646122516E+00   -1.0798725119549157E+02   -2.3312869458283611E+01
Pb   -6.4400782831507044E+01   -9.6128027643365485E+01    2.3161731068557444E+01
Pb    3.5285562178324234E+01   -3.4787772771436565E+01   -1.0563877369006433E+02
Pb   -4.3976526893211634E+01    2.4352595074656140E+01   -1.5231995539913463E+01
Pb   -1.3119202864633866E+02    3.9677804100997598E+01    3.4546906539550079E+01
Pb   -7.3890359462926426E+01    1.0072191747715731E+02   -1.3870564785366659E+01
Pb   -1.0604372792861743E+02    2.1641671862427830E+02    3.0179104637159522E+01
Pb   -1.7619462379264388E+02    2.0719178360434509E+02    1.0541959622676815E+02
Pb    1.6466779522641770E+02   -2.2309268971522448E+02   -1.5027925745043601E+02
Pb    1.3393101501118491E+02   -1.6427194066404911E+02   -8.1515480044096975E+01
Pb    1.4847219105312945E+02   -1.4085570228875648E+02   -3.1732391050575426E+01
Pb    1.0014668422626204E+02   -4.2165373720907851E+01   -4.4870468934336259E+01
Pb    1.2040386369349254E+02   -4.7272343694570907E+01   -4.7696019302731081E+01
Pb   -7.2016546744608316E+00    1.2654687277984785E+01    1.4344816307122979E+01
Pb    6.3658549207390486E+01    1.1297854385700737E+02   -6.6074804188433092E+01
Pb    1.7594580254700958E+01    1.2206070036115740E+02   -3.2403886597502471E+01
Pb    7.5955103397581389E+00    1.0516131961503642E+02    2.0636571040306759E+01
Pb   -1.1590969750583373E+02   -1.0450410741341371E+02   -3.8113767229595162E+01
Pb   -7.5209781815933610E+01   -1.0606078746439837E+02    6.2328444115725148E+00
Pb   -7.9208427185205380E+01   -6.1647630601837257E+01    6.7587704432844916E+01
Pb   -1.1937879302451211E+02   -4.0041740086036715E+00   -3.7260526380713848E+01
Pb   -1.1110560745958578E+02    2.7762000757741383E+01    1.9665984304864867E+01
Pb   -8.5677015853057668E+01   -2.7884874566056240E+01    5.4436551056357956E+01
Pb   -1.2424133419205747E+02    1.3540782644355377E+02   -1.3453614847374133E+01
Pb   -1.8551051354128631E+02    1.8866809353452533E+02    8.4310524929423877E+01
Pb   -2.1212555573981757E+02    1.9514908540843112E+02    1.0246699159757108E+02
Pb    4.2445116236283624E+01   -1.3687900533984660E+02   -5.5905090875346794E+01
Pb    1.4742913718132024E+02   -1.4525616348782631E+02   -5.1407432803888000E+01
Pb    7.5302693103716649E+01   -1.2581995029392745E+02    1.1610777721363064E+01
Pb    1.9358909227404656E+01    1.3067770420920174E-01   -7.2168874596381841E+01
Pb    6.5303750351019041E-01    1.3262936375147284E+01   -1.4247501835600927E+01
Pb   -1.0248285054699219E+01    1.2009063371273283E+01    4.3684306139434021E+01
Pb   -5.8301906662790834E+01    1.2598354389663295E+02    2.5455552019791259E+01
Pb    3.6658256350853180E+00    1.3301099960135548E+02    2.7709778362226825E+01
Pb   -7.8036048402352264E+01    1.4227021103211268E+02    7.7216735964424117E+01
Pb    1.4896707878771014E+02   -1.5985935008907444E+02   -9.5686107793501080E+01
Pb    1.8828390392420775E+02   -1.4213853820553254E+02   -3.3175251701576066E+01
Pb    1.5588400024816980E+02   -1.1997240135018791E+02   -1.2196695838781677E+01
Pb    1.5455893101814158E+02   -6.3563339574443866E+01   -6.8457616655280106E+01
Pb    1.5544278822144869E+02   -5.7558789176167238E+01   -4.6772770790515814E+01
Pb    1.9772300990961266E+01    3.6387796313786325E+00    3.3257690246847694E+01
Pb    6.5470829158159404E+01    1.0635805603703673E+02   -4.3101687625293266E+01
Pb    1.6631710129965253E+02    5.8398091017510495E+01   -2.9844825087011735E+01
Pb    8.8958530306380723E+00    1.1046550432641818E+02    3.0432435054977034E+01
Pb   -8.3557532282097625E+01   -1.6939523473641162E+02   -8.5908609068986195E+01
Pb   -1.1396555764890681E+02   -1.0895350092489062E+02    3.4165196872115891E+00
Pb   -7.6583738606668135E+01   -1.8781582098903024E+02    2.9125446247590201E+01
Pb   -1.2559416299933866E+02   -6.5605825272988113E+01   -8.1990440289473739E+01
Pb   -1.8895044947639366E+02    1.6650180014347178E+01    1.4064195926186311E+01
Pb   -1.6290167273996281E+02   -2.2113282216816632E+01    3.9556275638853748E+01
Pb   -2.6371351594311108E+02    9.5164020351121522E+01    8.7467610484149327E-01
Pb   -2.1875073616243225E+02    9.3780782804841763E+01    7.2087386746648889E+01
Pb   -2.0971937848050220E+02    1.2794100218749662E+02    6.7980510761569548E+01
Pb    3.7929707016096593E+01   -2.0543100047743772E+02   -9.6120280843163485E+01
Pb    7.5281692174623760E-01   -1.4491914625589609E+02   -6.2323878397044908E+01
Pb   -4.3234400047303005E+01   -1.3382740101850922E+02    4.5059162425801125E+00
Pb   -2.4508961255204017E+01   -8.7371699278463836E+01   -8.0289629712175937E+01
Pb   -4.8303339093604301E+01   -4.5348796941828624E+01   -7.8185450486353840E+00
Pb   -5.2662964698235477E+01   -4.0976291048066336E+01    2.3425666993362184E+00
Pb   -3.4026596613588616E+01    5.9987082088140774E+01   -4.1432703711077288E+01
Pb   -3.6333798483967449E+01    3.0917799413706273E+01   -1.9143181805775800E+01
Pb   -1.0778238459681579E+02    1.3376353004486833E+02    9.2960510267466731E+01
Pb    1.7905612024141959E+02   -2.6147974718490298E+02   -1.4713685935701886E+02
Pb    4.9535579940394776E+01   -1.8354283149882775E+02   -5.9108800378616131E+01
Pb    1.4299186183639856E+02   -1.6314970798529683E+02   -3.2360539942320720E+01
Pb    1.0045478242969889E+02   -6.6784483181735155E+01   -1.3001893308318617E+02
Pb    5.1544675615056278E+01   -4.3656445648031536E+01   -3.1755520962785400E+01
Pb    1.0908122211383304E+02   -8.2312351215153953E+01   -2.2661331523652517E+01
Pb    1.1844830503416870E+02    5.4400480868068635E-01   -7.8552079037788815E+01
Pb    7.7644344208068958E+01    1.1481479913824169E+01   -1.6862473597952953E+01
Pb    5.4825724767689614E+01    1.3245176139953930E+01   -6.6521555080386525E+00
Pb   -8.8643799339385296E+01   -1.0493585962015477E+02   -5.8930190092317069E+01
Pb   -1.4688276800902358E+01   -1.6068301641877159E+02   -2.9927408809920649E+01
Pb   -7.8558743989956312E+01   -1.6784550002285971E+02    6.1794481886905835E+01
Pb   -5.2424213425245895E+01   -7.5937683078013066E+01   -7.2629398646525445E+01
Pb   -9.4433545782891699E+01   -4.8469450292320872E+01   -7.9075384568470293E+00
Pb   -1.4186494340893117E+02   -3.3085326407386063E+01    6.8510126196433276E+01
Pb   -3.6427275843366502E+01    6.6437899636399308E+01   -1.9114880849746964E+01
Pb   -1.3741738230358908E+02    8.3524867569133960E+01    4.4881786457995595E+01
Pb   -1.5383843686721934E+02    1.1734170635280739E+02    1.2519652761994163E+02
Pb    2.9210604165169794E+01   -1.5329331565566264E+02   -7.5589831478611103E+01
Pb    3.5503919489605458E+01   -1.8899501154647857E+02   -4.2724750699611768E+01
Pb    6.8158683792418088E+01   -2.0695775138924205E+02    2.1656573437613062E+01
Pb    1.1130550372146775E+01   -1.0859671829297706E+02   -8.7205100953450000E+01
Pb   -2.1182938528311357E+01   -2.4482393746825380E+01    1.6496622939192026E+01
Pb    4.4073277261783318E+01   -7.8148885844530341E+01    9.8646068120200123E+00
Pb    4.0401475973479570E+01    5.9377416494291744E+01   -5.1980879845223171E+01
Pb    2.8709318090304997E+01    2.7490594608396397E+00   -2.8568373769957538E+00
Pb   -7.2613250680857448E+01    1.0601151048823617E+02    7.1339616171346691E+01
Pb    2.1262871638932245E+02   -2.4628962449878648E+02   -1.0367822310895843E+02
Pb    1.3753012715908523E+02   -2.3071945980143252E+02   -2.8003914526278063E+01
Pb    1.5259068202691981E+02   -2.2216402871333881E+02   -1.5471976985607844E+01
Pb    1.9874989718367067E+02   -1.0460602189146046E+02   -9.0585998244784321E+01
Pb    1.2618798883579424E+02   -5.8735434101992844E+01   -2.9153996217330665E+01
Pb    7.7998944884298410E+01   -4.3527378303259205E+01    3.8093793525166561E+01
Pb    1.1690607467730572E+02   -4.3664188245698199E+01   -5.2173269239863018E+01
Pb    1.0800936074997422E+02   -2.2732234150083098E+01   -2.6464661974838513E+01
Pb    1.0890123091256129E+01    1.0076512818898873E+02    7.1932590499436870E+01
Cs   -2.3905455046631022E+01   -1.9436703293444751E+02   -9.2406410291946671E+01
Cs   -4.5628996028948322E+01   -8.6521498072764516E+01   -1.4500942765109823E+01
Cs   -1.1310238101158542E+02   -3.4131976166428792E+01    7.8819209367344911E+01
Cs   -1.4266872928793443E+01    9.7401120138682451E+00   -6.2960050947195207E+01
Cs   -1.6537045915126779E+01   -4.8511767555537546E+01   -4.8042781639875010E+01
Cs   -1.1951338958016825E+02   -1.5351074975607167E+01    4.8617971793222893E+01
Cs   -7.7832821448765856E+01    3.7921312540596709E+01   -3.8527691342837144E+01
Cs   -1.0586619164609274E+02    1.0486872900779885E+02   -2.1192777117803634E+00
Cs   -1.8025348205720564E+02    1.5178416921665240E+02    3.7926438752417525E+01
Cs    1.4605114424699374E+02   -2.5052044501470601E+02   -1.3382212916828300E+02
Cs    1.5214389719432524E+00   -1.4562373178097991E+02   -3.6696892867560287E+01
Cs    1.1941666328159012E+02   -1.5924570830728294E+02   -4.3942227715642503E+01
Cs    5.2918681311857085E+01   -3.2126354919412400E+01   -7.8824881152966654E+01
Cs   -1.7067217141917396E+01    6.5201920023477156E+00   -6.1949598628401343E+00
Cs   -2.5043315569282491E+01    1.4141397367208050E+01    5.1882272680221057E+01
Cs    9.5640899843602760E+00    6.8646370937665381E+01   -7.5280857623069068E+01
Cs   -1.3302629299876903E+01    1.1524372191863230E+02   -3.8209644862796366E-01
Cs   -7.4987419204624089E+01    1.0251749767882772E+02    4.3815073073555915E+01
Cs    2.1465395190282348E+02   -2.4104356088949385E+02   -1.6749332944922477E+02
Cs    1.3882086626216983E+02   -1.9511219304545435E+02   -9.9345400217695371E+01
Cs    1.8634687128259262E+02   -2.7282102737001350E+02   -6.9490654606917417E+01
Cs    1.3032921681679582E+02   -5.1511630662890980E+01   -8.5325321855689054E+01
Cs    1.6682949821679162E+02   -8.6154843511372988E+01   -5.4035384764241400E+01
Cs    1.2294154716530745E+02   -5.8602426768049938E+01   -2.2998463170063218E+01
Cs    1.0359593155043352E+02    4.6925734186060453E+01   -4.3998545445341977E+00
Cs    1.2496656698211872E+02    4.1549695150203796E+01    3.7375622620886617E+01
Cs    2.3924795403779139E+01    9.7092651862474142E+01    4.0972434366046514E+01
Cs    9.7034111995198575E+00   -6.9560023630644011E+01   -7.6852699958614849E+01
Cs    5.5269188651306166E+01   -5.7692775720801194E+01   -2.6746095143592061E+01
Cs   -4.5729118080587270E+01   -9.9651904437798876E+01    6.0884621406960079E+01
Cs   -9.7312312143420527E+01    8.2479569831225419E+00   -2.0265182155169491E+01
Cs   -9.5484271681362941E+01    1.2332429500187476E+02    6.7478270625498169E+01
Cs   -9.4160483715050091E+01    1.9694012385826827E+01    5.8430334405942922E+01
Cs   -9.3636242803597781E+01    1.9015327416772749E+02    3.3515302600889791E+00
Cs   -8.4142418817064126E+01    1.7980201381870813E+02    9.0261578593969617E+01
Cs   -1.2691835494172260E+02    2.5110560592020528E+02    1.0821377707741756E+02
Cs    1.7849130033520677E+02   -1.0211483358695419E+02   -9.3938529000498718E+01
Cs    1.1503847872513539E+02   -6.1150102016367462E+01   -4.3274328281817468E+01
Cs    6.9569522538953990E+01   -1.0492443561769502E+02   -5.8930958615093214E+00
Cs    5.5522752192538718E+01    4.8019631938858602E+01   -4.9915188019885775E+01
Cs    6.6257244230661428E+01   -4.1474263199778946E+01   -2.0799505018891814E+01
Cs   -1.4042761106958073E+01    8.3720901457478391E+01    4.8589570188727762E+01
Cs    4.5189465369033979E+00    1.4315157520990411E+02   -3.3782758453999115E+01
Cs    3.9269004546382654E+01    1.4543414658502107E+02   -3.2907407297763790E+01
Cs   -1.4781313706100509E+01    2.0486267374932740E+02    4.9765815067753969E+01
Cs    2.2013498196760330E+02   -1.0461666576262120E+02   -8.0017611227671836E+01
Cs    2.9115200159823945E+02   -1.6492439561709440E+02   -1.2081626349565926E+02
Cs    1.2688159327784905E+02   -9.2764323287422812E+01    2.3584321287265407E+01
Cs    2.0764066278912094E+02   -1.0543954582492194E+02   -9.4193383911588256E+01
Cs    1.9442295320615673E+02   -5.6741423099868626E+01   -8.0951409701862815E+01
Cs    2.2946042027859821E+02   -5.5486493878885199E+01   -4.0092418230483275E+00
Cs    1.3647291177142134E+02    6.9630292313351106E+01   -5.7012902151341180E+01
Cs    1.4575586749592875E+02    1.2104310495530315E+02   -1.9145988614374041E+01
Cs    1.3252038856507770E+02    1.0815058356546433E+02    3.6005626164937901E+01
Cs   -3.1178140776052363E+01   -8.9872718778299571E+01   -7.2790888387882248E+01
Cs   -1.0521629086764221E+02   -3.1260844913608008E+01    4.4425454214576394E+00
Cs   -1.4928908465369068E+02   -1.4224141732357165E+01    9.0737843804375316E+01
Cs   -6.0384405126052336E+01    4.6372776818251332E+01   -8.8474493441996760E+00
Cs   -1.5945765750357137E+02    4.7455931582457424E+01    2.3929016612234342E+01
Cs   -1.1062413419538015E+02    4.5865293555737647E+00    8.3605453075591910E+01
Cs   -1.3897443203082543E+02    2.2579409081589966E+02    2.0395695495890372E+01
Cs   -1.7474690115401921E+02    1.9507017307320893E+02    8.4421640956838914E+01
Cs   -3.2260824562665931E+02    1.9645608732878478E+02    1.5232830343270305E+02
Cs    6.6916003846775865E+01   -7.0721412950904394E+01   -1.0944029787354377E+02
Cs    4.0310836450773690E+00   -6.3393879443584837E+01    6.2686833233456474E+00
Cs    2.9673031970596281E+01   -3.5221367931849734E+01    2.9472348850458292E+01
Cs    2.1776529054274089E+01   -5.2039746142427994E+00   -4.2068961780216220E+01
Cs   -1.2290563565047474E+00    3.6397962754795124E+01    1.8568768110169767E+01
Cs   -6.3777579400346987E+01    6.0600383757215035E+01    6.8460970362549531E+01
Cs   -5.2569940032226462E+01    1.3969584288043220E+02    2.6871569262608595E+01
Cs   -2.8472611568166347E+01    1.2886235885050104E+02    4.2153110984020898E+01
Cs   -1.2309929791947172E+02    1.6151801969494886E+02    1.4664145144511667E+02
Cs    1.5636206460169134E+02   -1.6494596463309244E+02   -9.4329111792693283E+01
Cs    1.9000461689675075E+02   -1.1315626523766642E+02   -2.3003401436381413E+01
Cs    1.6047269113831993E+02   -9.8705348694680424E+01    2.5693121277653841E+01
Cs    1.7673548831261348E+02   -3.5244906839405310E+01   -4.4898287841572554E+01
Cs    3.1155142776139776E+01    2.6288244467119931E+01    3.9120355109192566E+01
Cs    2.0569606887906399E+01    7.3845199669520582E+01    6.9518232107801609E+01
Cs    1.3621788157465727E+02    1.2182303725007704E+02   -3.0014880731004805E+01
Cs    5.8922300596287895E+00    1.5064768584921879E+02    2.7741915902473945E+01
Cs    1.9177677743328694E+01    1.6041135281884272E+02    8.5099594714066910E+01
Cs   -1.2418509903920679E+02   -1.1955914270726366E+02   -3.8184969817646810E+01
Cs   -7.4346916867701950E+01   -1.4525932385513877E+02    6.5204914102193996E+01
Cs   -2.1052398450596104E+02   -9.3951233370882683E+00    1.0382227342962315E+02
Cs   -1.9250133611147132E+02   -7.6310218342094294E-01   -4.2886741091124087E+01
Cs   -1.8293634054171949E+02    3.0245722660113305E+01    5.1850740617301838E+01
Cs   -1.5947250182809782E+02   -1.2462193213458297E+00    7.2951749379166955E+01
Cs   -1.7327647737615337E+02    1.8357977280191355E+02    3.7399051049866060E+01
Cs   -1.2649002519959211E+02    1.9848710813960182E+02    4.0849279858449684E+01
Cs   -1.7485507298382069E+02    1.4103090349435399E+02    1.1932870150005301E+02
Cs    1.1006209393174782E+01   -1.2592716699253884E+02   -5.7682171564393848E+01
Cs   -3.9468451365903903E+01   -1.3579565256603371E+02   -2.5696226451627250E+01
Cs    3.0421727650740962E+01   -1.5295640449562262E+02   -1.1145133280581028E+01
Cs    1.2401978484904769E+01   -4.0719413610162128E+01   -2.5945676765553241E+01
Cs   -6.4548309730518000E+01   -3.5630561382614424E+01   -7.0209509907957068E+00
Cs   -5.0257780899532975E+01   -6.6177439300913505E+01    7.7651722512282628E+00
Cs    1.4441447289457411E+01    5.4726377593835295E+01   -4.0899703450227541E+01
Cs   -2.2228120518318750E+01    6.9472867932102801E+01   -1.4025989737119346E+01
Cs   -1.2031383421563383E+02    1.9191367722928115E+02    8.2554848593276873E+01
Cs    8.5920874149087012E+01   -2.1755042572822788E+02   -9.5522521777406737E+01
Cs    1.2374985935993136E+02   -1.4487484895199975E+02   -5.9173347028013474E+01
Cs    1.2268270850103295E+02   -1.3434150091921407E+02   -1.3153489067137587E+01
Cs    9.3235277603838483E+01   -7.2756841465155105E+01   -9.6128422124548308E+01
Cs    3.1295077388083829E+01   -4.3571733301914399E+01   -1.4670989139878387E+01
Cs    4.5886696505571036E+00   -4.3124393235910725E+00    2.6037606107033056E+01
Cs    8.4145730296255124E+01    4.3995810481292594E+01   -7.0228645853647691E+01
Cs    4.6402783658795009E+01    4.5415524062422968E+01   -1.2320258771027948E+01
Cs   -2.7113518755916566E+01    1.5836650698964650E+02    9.1711551064863627E+01
Br   -1.1334506913693497E+02   -1.1173809026407426E+02   -3.7452187719895697E+01
Br   -1.6332239994440732E+02   -1.7194631693343215E+01    3.7638596658077439E+01
Br   -1.7901531642429487E+02   -3.5199209276448549E+01    6.8776366084197335E+01
Br   -1.1807749074236361E+02   -3.1863363104470852E+00   -3.4207458478783813E+01
Br   -1.6317408980484262E+02    4.7406440889179670E+01    1.0279872675325228E+01
Br   -1.3713969537757546E+02    1.2103702431043581E+01    4.0127151648499151E+01
Br   -9.7265881948834206E+01    1.2401108783002933E+02   -1.3472040446680971E+01
Br   -1.8505297682910529E+02    1.9842847615666781E+02    7.5659617029097504E+01
Br   -2.1698713783890580E+02    1.9482798576179559E+02    1.0483395056839443E+02
Br   -2.5349439941715083E+01   -9.4228635848201989E+01   -7.7838018125707507E+01
Br   -2.1671472099648220E+01   -9.6139915179680514E+01   -2.8077330015780671E+01
Br   -5.1182750566308137E+01   -5.6642614092042443E+01    8.0819922236145647E+00
Br    7.2391259532972171E+01   -7.0580656864660028E+01   -1.0306094222265845E+02
Br    9.9243136321018743E-01    1.6734147606307641E+01   -3.6471592068064953E+00
Br   -2.0993045556493275E+01    1.3454590128551791E+01    4.9710740566924798E+01
Br   -7.5267065429820676E+01    1.0271330249000587E+02   -1.1206176233819241E+01
Br    2.5185694392554239E+00    1.3135899143653111E+02    2.4118418474591536E+01
Br   -1.4189409986500164E+02    2.0073298679362617E+02    8.0879868582064489E+01
Br    1.7659653059766069E+02   -1.0080003124852422E+02   -9.6773364315705649E+01
Br    1.4299222682402706E+02   -1.6317082806873449E+02   -3.5659363320588184E+01
Br    1.4081423539628528E+02   -1.3561110092896115E+02   -1.5049313018147203E+01
Br    1.5704241662431303E+02   -5.6894804197679889E+01   -6.7100584880781696E+01
Br    1.2315815571267277E+02   -4.3043915113696990E+01   -5.5244619254227160E+01
Br    2.3556782812967576E+01    9.9003474550988990E+00    2.3458420274364933E+01
Br    6.3909860656901273E+01    1.0478170378152186E+02   -4.1350224242765854E+01
Br   -1.2657375771250971E+01    1.3203438726138586E+02   -2.2708781155450506E+01
Br   -1.0751282254545347E+02    1.8468387498681071E+02    9.2393023206419713E+01
Br   -8.9020962476705080E+01   -1.6417699257090680E+02   -1.7855969519855488E+01
Br   -6.0117752291111053E+01   -6.1960745662104273E+01    8.2450087329245374E+00
Br   -2.2109899594300671E+02    3.4860171486771158E-01    8.1894914202589817E+01
Br   -1.9855156271889743E+02    5.5540520224794733E+01    3.1804359155951921E+01
Br   -2.2686789954943200E+02    3.3794004972705757E+01    3.8637959359876241E+01
Br   -1.4073374306307056E+02   -3.5349139748477960E+01    6.4856636479205136E+01
Br   -1.8954952899548690E+02    1.7766863344091141E+02    3.6601766451287226E+01
Br   -1.8435481541586489E+02    1.6225840013333573E+02    8.9672226835646001E+01
Br   -3.3986633655536411E+02    1.8430788529013694E+02    1.6008525131902894E+02
Br    1.4820916085559988E+01   -1.2161719246126907E+02   -5.8073809030012370E+01
Br    1.4908774736567145E+02   -1.4765767651078019E+02   -5.0498803814973698E+01
Br   -4.4507914370161338E+01   -9.7639360017663861E+01    7.3225386386675353E+01
Br    1.8244708474640507E+01    5.5871496929943876E-01   -6.9032018646601372E+01
Br   -1.3465562886805012E+02    4.2435445598102369E+01    4.5781149143690172E+01
Br   -5.2693690017820749E+01    3.3363968457967374E+01    5.4728666306216816E+01
Br   -1.2281398909737497E+02    2.0825425902176491E+02    3.1571780202134981E+01
Br    1.3475934012063082E+01    1.3276241503246897E+02    1.9359729330878153E+01
Br   -1.2878632676775555E+02    1.2379436710504628E+02    1.2592686374976266E+02
Br    1.3308013412947173E+02   -1.6593201616807104E+02   -7.6759947511278682E+01
Br    1.8833316759660943E+02   -1.4770907741326559E+02   -3.6356720637567662E+01
Br    8.4552907317727801E+01   -1.4507064061360427E+02    1.9446451981979546E+01
Br    1.1238983978420569E+02   -3.9349282242044517E+01   -5.9014407025604910E+01
Br    3.9739746116794805E+01   -4.5913027612522086E+01   -2.7093375972216258E+01
Br    1.2369334461670380E+01    2.9525509703303285E+01    1.2247252447499605E+02