 # Version information for this restart file 
 # current date 2020-12-23 15:02:30.841
 # current working dir /Users/bvanbeek/Downloads/MM_MD_workdir/md
 # Program compiled at                             Fri Apr 19 11:24:34 CEST 2019
 # Program compiled on                                             192.168.1.124
 # Program compiled for                           Darwin-IntelMacintosh-gfortran
 # Source code revision number                                         svn:18464
 &GLOBAL
   PRINT_LEVEL  LOW
   PROJECT_NAME cp2k
   RUN_TYPE  MD
 &END GLOBAL
 &MOTION
   &MD
     ENSEMBLE  NPT_F
     STEPS  10000
     TIMESTEP     2.4999999999999996E+00
     STEP_START_VAL  9980
     TIME_START_VAL     2.4949999999995503E+04
     ECONS_START_VAL    -5.5495911227455137E+00
     TEMPERATURE     3.0000000000000000E+02
     &BAROSTAT
       PRESSURE     1.0100000000000000E+00
       TIMECON     4.9999999999999994E+02
       &VELOCITY
            -5.7237884480878055E-07    1.3439375197496674E-06    2.5314991696920362E-06    1.3439375197496669E-06 \
            -2.7489038567537849E-06    2.3942426635065153E-06    2.5314991696920374E-06    2.3942426635064695E-06    2.1219906305477697E-06
       &END VELOCITY
       &MASS
             2.1920353963970435E+08    2.1920353963970435E+08    2.1920353963970435E+08    2.1920353963970435E+08 \
             2.1920353963970435E+08    2.1920353963970435E+08    2.1920353963970435E+08    2.1920353963970435E+08    2.1920353963970435E+08
       &END MASS
       &THERMOSTAT
         TYPE  CSVR
         &CSVR
           TIMECON     9.6755373060191392E+00
           &THERMOSTAT_ENERGY
                 3.8308741201930052E-01
           &END THERMOSTAT_ENERGY
           &RNG_INIT
Wiener process for Thermostat # 1        1 F T F   5.5588353762466025E-01        4005217529.0         357133795.0        1176466621.0        3504177414.0        1225589783.0         817539720.0             12345.0             12345.0             12345.0             12345.0             12345.0             12345.0             12345.0             12345.0             12345.0             12345.0             12345.0             12345.0
           &END RNG_INIT
         &END CSVR
       &END THERMOSTAT
     &END BAROSTAT
     &THERMOSTAT
       TYPE  CSVR
       &CSVR
         TIMECON     4.9999999999999994E+02
         &THERMOSTAT_ENERGY
              -3.8310893680614195E+00
         &END THERMOSTAT_ENERGY
         &RNG_INIT
Wiener process for Thermostat # 1        1 F T F  -2.4229115553496500E-01        4125990696.0         737518566.0        3716537888.0        1060769436.0        3218615394.0         287138710.0             12345.0             12345.0             12345.0             12345.0             12345.0             12345.0             12345.0             12345.0             12345.0             12345.0             12345.0             12345.0
         &END RNG_INIT
       &END CSVR
       &PRINT
         &TEMPERATURE  ON
           FILENAME 
           &EACH
             MD  10
           &END EACH
         &END TEMPERATURE
       &END PRINT
     &END THERMOSTAT
     &AVERAGES  T
       &RESTART_AVERAGES
         ITIMES_START  1
         AVECPU     2.8788597895791742E-02
         AVEHUGONIOT     0.0000000000000000E+00
         AVETEMP_BARO     7.9768672431009111E+02
         AVEPOT    -4.2099904814344287E+00
         AVEKIN     6.8882970521726927E-01
         AVETEMP     2.6903519805821850E+02
         AVEKIN_QM     0.0000000000000000E+00
         AVETEMP_QM     0.0000000000000000E+00
         AVEVOL     5.7420920157653600E+07
         AVECELL_A     4.0412542346676440E+02
         AVECELL_B     4.0784951495515804E+02
         AVECELL_C     2.0212906537148996E+02
         AVEALPHA     6.9550407897392816E+01
         AVEBETA     1.1332623946583075E+02
         AVEGAMMA     1.0923190926667986E+02
         AVE_ECONS    -1.4352445472083426E+00
         AVE_PRESS     2.8562861867732963E+00
         AVE_PXX     2.4715776132869061E+00
       &END RESTART_AVERAGES
     &END AVERAGES
   &END MD
   &PRINT
     &TRAJECTORY  ON
       &EACH
         MD  10
       &END EACH
     &END TRAJECTORY
     &CELL  ON
       FILENAME 
       &EACH
         MD  10
       &END EACH
     &END CELL
     &FORCES  ON
       FILENAME 
       &EACH
         MD  10
       &END EACH
     &END FORCES
   &END PRINT
 &END MOTION
 &FORCE_EVAL
   METHOD  FIST
   STRESS_TENSOR  ANALYTICAL
   &MM
     &FORCEFIELD
       VDW_SCALE14     1.0000000000000000E+00
       EI_SCALE14     1.0000000000000000E+00
       SHIFT_CUTOFF  T
       DO_NONBONDED  T
       IGNORE_MISSING_CRITICAL_PARAMS  T
       &SPLINE
         R0_NB     1.0000000000000001E-01
       &END SPLINE
       &NONBONDED
         &LENNARD-JONES
           ATOMS Cs Cs
           EPSILON     2.2644852172126850E+01
           SIGMA     5.8500000000000005E+00
         &END LENNARD-JONES
         &LENNARD-JONES
           ATOMS Cs Pb
           EPSILON     8.6920055954630953E+01
           SIGMA     5.1000000000000005E+00
         &END LENNARD-JONES
         &LENNARD-JONES
           ATOMS Br Pb
           EPSILON     2.0528187276773045E+02
           SIGMA     2.9000000000000004E+00
         &END LENNARD-JONES
         &LENNARD-JONES
           ATOMS Br Cs
           EPSILON     5.3481070753900497E+01
           SIGMA     3.8500000000000005E+00
         &END LENNARD-JONES
         &LENNARD-JONES
           ATOMS Br Br
           EPSILON     1.2630795322675199E+02
           SIGMA     4.2599999999999998E+00
         &END LENNARD-JONES
         &LENNARD-JONES
           ATOMS Pb Pb
           EPSILON     3.3363415533600221E+02
           SIGMA     5.9800000000000004E+00
         &END LENNARD-JONES
       &END NONBONDED
       &CHARGE
         ATOM Cs
         CHARGE     2.0000000000000001E-01
       &END CHARGE
       &CHARGE
         ATOM Pb
         CHARGE     4.0000000000000002E-01
       &END CHARGE
       &CHARGE
         ATOM Br
         CHARGE    -2.0000000000000001E-01
       &END CHARGE
     &END FORCEFIELD
     &POISSON
       PERIODIC  XYZ
       &EWALD
         EWALD_TYPE  SPME
         GMAX  22
         O_SPLINE  4
       &END EWALD
     &END POISSON
     &PRINT
       &FF_INFO  LOW
         SPLINE_INFO  F
         SPLINE_DATA  F
       &END FF_INFO
     &END PRINT
   &END MM
   &SUBSYS
     &CELL
       A     4.3668432333811984E+02   -1.6296715758977189E+02   -9.4418713140585993E+01
       B    -1.8051641149352383E+02    4.3679375232654371E+02    8.9367120228489711E+01
       C    -1.0299238667510353E+02    8.3667511711958724E+01    1.7987209255769702E+02
       PERIODIC  XYZ
       MULTIPLE_UNIT_CELL  1 1 1
     &END CELL
     &COORD
Br   -2.1993070612210946E+02    2.2873897949271998E+02    1.1328364649158618E+02
Br   -2.5373560444245246E+02    2.4880332481291666E+02    1.5638337413648753E+02
Br    3.8449815566808340E+01   -1.5481241836574381E+02   -3.9668938414551150E+01
Br   -7.4902790022781190E+01   -1.6509161879249909E+01    4.6973201223761954E+01
Br    7.9864892080444562E+01   -1.1956050525567697E+02   -1.4061983167528037E+01
Br    3.3657386331261698E+01   -2.4977239080856943E+01   -5.2242189034419980E+01
Br   -2.1880292742454449E-01    3.2811241050528719E+00   -1.9794031154085811E+01
Br   -1.2592826283075294E+01    1.4935810146397746E+01    4.2029497333836630E+01
Br   -7.3757349556724506E+01    1.3364991546575550E+02    3.6500878758220416E+01
Br   -7.3301434512433119E+01    1.6712208345062058E+02    7.0990215372989923E+01
Br   -9.1948029595521646E+01    1.7533638757206592E+02    9.3435561353785985E+01
Br    1.7987456467469389E+02   -1.7867597068828005E+02   -1.2144194442745376E+02
Br    1.4774033781904723E+02   -7.0929615774841920E+01   -2.6266484889601362E+01
Br    1.9402414873126179E+02   -1.3512616940238880E+02   -2.1439009637559312E+01
Br    1.5280187686323873E+02   -1.0401887566112349E+02   -2.8161958537450257E+01
Br    1.3377151062104065E+02   -3.8887854886783913E+01   -1.1386403181855332E+01
Br    6.0930186411057051E+01    1.0298340957463319E+01   -2.1545598211117927E+01
Br    7.1073612321586296E+01    1.6785688782353043E+02   -9.0280348938886412E+00
Br    1.5099729285362287E+02    1.3440125268560800E+02   -1.7005057875139151E+01
Br    1.3294516955023974E+01    1.1065754381237281E+02    2.8312386937516976E+01
Pb   -1.6353170918345097E+02   -6.2167716031248098E+01   -4.8067453895526306E+01
Pb   -8.5603378838009021E+01   -1.0913335745817508E+02    2.6416414921610489E+01
Pb   -2.0215027607582314E+02   -1.3426801675835154E+01    6.8946981253246491E+01
Pb   -6.8200730151130571E+01   -1.3446086262144649E+02   -1.2078296751582349E+02
Pb   -2.2699284249146385E+02    8.8149664108299305E+01    2.4862756113130111E+01
Pb   -1.5087352081947475E+02    3.5969371568233335E+01    3.7644479477813960E+01
Pb   -2.9943878339976965E+02    1.5129134743994746E+02   -1.0601390350762559E+01
Pb   -2.4473216642620613E+02    2.2003521246920320E+02    3.0590778453000755E+01
Pb   -2.2674982083311627E+02    2.0235112619831108E+02    8.7710360700003719E+01
Pb    4.0297583225873765E+01   -1.6042544050094267E+02   -7.6427397972619744E+01
Pb   -1.9967293747313544E+00   -1.2658889144898140E+02   -1.4934301719375068E+01
Pb   -6.8948326058289666E+01   -9.4566053632574906E+01    3.3990231982973196E+00
Pb    3.8219111836356724E+01   -4.4438314773804962E+01   -1.3628202881306191E+02
Pb   -4.3809889937967014E+01    2.3046071900572532E+01   -6.8519630274259864E+00
Pb   -1.4826283580418709E+02    6.2299145552747646E+01    3.2332563436047096E+01
Pb   -9.8862387206578504E+01    1.2617223151524793E+02   -1.6864287841468037E+01
Pb   -1.1256402052144885E+02    2.7051582909993806E+02    4.3467378053078335E+01
Pb   -2.0485985437175887E+02    2.5186614183683156E+02    1.2291336171419717E+02
Pb    1.9050370270196652E+02   -2.7071267933193781E+02   -1.7077692114767402E+02
Pb    1.6358447665059870E+02   -2.0033951790644022E+02   -8.8549881098977508E+01
Pb    1.7755658212983974E+02   -1.6165040469726722E+02   -3.7529387624070253E+01
Pb    1.1532302473170209E+02   -6.1327583940352383E+01   -3.8293665944726293E+01
Pb    1.5805690804516328E+02   -7.4082494306291423E+01   -4.7212208635387107E+01
Pb   -7.6539620392308523E+00    1.6723226117357537E+01    2.2905267447691622E+00
Pb    5.4187459205115310E+01    1.2213412711346460E+02   -5.6328357830903116E+01
Pb    3.7249041127294467E+00    1.4198111697448925E+02   -2.7082684257770723E+01
Pb    1.3896190448196529E+01    1.1273661630981489E+02    3.6482616185548508E+01
Pb   -1.3333448710250980E+02   -9.8693361630094586E+01   -3.9113301908453103E+01
Pb   -8.8006193514965716E+01   -1.1247971275675857E+02   -5.2760533874612836E-01
Pb   -8.7182670193437687E+01   -6.0582474604572155E+01    8.7028689142969966E+01
Pb   -1.3701483941303815E+02    1.3013863838699388E+01   -4.5400587053949764E+01
Pb   -1.2612006056215989E+02    3.8744171723785726E+01    2.3954389079093570E+01
Pb   -1.0379049656591491E+02   -1.8449988023773297E+01    5.5407534626647688E+01
Pb   -1.4422512605976729E+02    1.6494862002312072E+02   -2.5096820440163253E+01
Pb   -2.1481955634693648E+02    2.1856979825781946E+02    1.1426947053403772E+02
Pb   -2.6134949343108582E+02    2.4875687975600042E+02    9.7452051285705323E+01
Pb    5.9509861862295189E+01   -1.5814163295755512E+02   -5.8179598794519926E+01
Pb    1.8915938968025259E+02   -1.7945919505036753E+02   -6.3084931650709969E+01
Pb    1.0195321921655795E+02   -1.4335709591017437E+02    1.1670964065991594E+01
Pb    1.8728883808275654E+01    3.4710932951080897E-01   -8.6465656335152545E+01
Pb    3.1507149120826061E+00    6.4743221401749729E+00   -1.9765728447152298E+01
Pb   -1.3535489802192696E+01    1.2428023805084074E+01    4.3058530463257576E+01
Pb   -7.3175617208283612E+01    1.3944441541070245E+02    3.6574971815675951E+01
Pb    6.6897995221112225E+00    1.4872412394860390E+02    4.2656806025098867E+01
Pb   -9.1860873938651778E+01    1.7255927842103810E+02    9.0952995889621221E+01
Pb    1.7024630133133238E+02   -1.9625414684844355E+02   -9.7785329586736637E+01
Pb    2.2741245868444636E+02   -1.7235138432275849E+02   -2.8952336167147827E+01
Pb    1.7872454383358806E+02   -1.7564878627789378E+02   -2.5332290078115133E+01
Pb    1.7912736521616173E+02   -8.8860083941994901E+01   -7.2877929006879455E+01
Pb    1.8641427359596221E+02   -8.1896920483374529E+01   -5.0846603356233814E+01
Pb    2.2730795650596136E+01    5.4487188181334156E-01    2.6186329216039297E+01
Pb    5.6345210919839673E+01    1.1532043268649667E+02   -5.0449365622799526E+01
Pb    1.8322171894767163E+02    5.5465139481307212E+01   -2.9853991472828195E+01
Pb   -2.8831292180646941E+00    1.2202101147585226E+02    2.3770550306024269E+01
Pb   -9.9022874560385702E+01   -1.7294149660191655E+02   -1.0608354952727755E+02
Pb   -1.1803092299755725E+02   -1.1363205872346069E+02   -1.5713617458291778E+00
Pb   -6.7306027500474045E+01   -2.1005699005383391E+02    4.0035638812329800E+01
Pb   -1.3576473867097678E+02   -4.0985335657564377E+01   -9.0539087197290243E+01
Pb   -2.2616768096712138E+02    3.6434312505612688E+01    1.3989303661057280E+01
Pb   -1.7878778711690327E+02   -5.7534599762646996E+00    4.2067696130382124E+01
Pb   -3.2341025060753134E+02    1.3780944727248462E+02   -1.4703096177385644E+00
Pb   -2.5791551468725237E+02    1.2732807048959381E+02    7.4860776685293871E+01
Pb   -2.5538720978332233E+02    1.6718802330862971E+02    6.4835306072270726E+01
Pb    5.0653448449100154E+01   -2.3370006861300712E+02   -9.8754294982424398E+01
Pb    6.6596207882010372E+00   -1.5539273428650139E+02   -6.9169103897204664E+01
Pb   -4.4333566438409157E+01   -1.4065603400754173E+02    6.6113724171432606E+00
Pb   -2.5473119121184837E+01   -9.1201608238541652E+01   -9.4335512660865788E+01
Pb   -4.3460656278132184E+01   -4.7253006335499705E+01   -3.6338822932039818E+01
Pb   -6.5517233607069087E+01   -3.2453185782675092E+01    2.9331449737792486E+01
Pb   -4.4806705117656279E+01    5.6136750737326594E+01   -4.2323008096774942E+01
Pb   -4.1276474337829043E+01    3.6724036570906051E+01   -1.7983283156279494E+01
Pb   -1.2011750127851528E+02    1.7311946453944873E+02    1.1765997049297046E+02
Pb    2.2349130777209311E+02   -3.0903406147000243E+02   -1.7335314597822543E+02
Pb    4.6780907794815064E+01   -2.0326766470978578E+02   -5.4863889473647752E+01
Pb    1.7982567030484879E+02   -1.8370035986018391E+02   -3.2112228399927687E+01
Pb    1.0844874251291326E+02   -7.9260822539181987E+01   -1.5026205888059101E+02
Pb    6.6222813954939355E+01   -5.4705011093118500E+01   -3.5144507822290564E+01
Pb    1.3092752220306312E+02   -9.7252356439581973E+01   -2.0966953979534960E+01
Pb    1.3789101575597280E+02   -1.9423404603753330E+01   -9.4558137408566196E+01
Pb    8.9826534520229416E+01    1.0117600335208920E+01   -4.5137521195208654E+00
Pb    5.3805649922650261E+01    4.8086729449714189E+00   -1.4984949737896569E+01
Pb   -1.1030857664988658E+02   -8.9870110367901162E+01   -7.6931499568062904E+01
Pb   -4.9596817276712200E+00   -1.7140326300572917E+02   -3.4920292697437752E+01
Pb   -8.4720661545520201E+01   -1.7740334182263814E+02    8.0088369525921422E+01
Pb   -5.6450511738179671E+01   -8.2171244741652458E+01   -9.5984467888579047E+01
Pb   -1.1316202963867742E+02   -5.3050896140217603E+01   -1.1593000796254879E+01
Pb   -1.4385138351866084E+02   -2.3351121995592326E+01    9.3483960615789272E+01
Pb   -5.0547212232172043E+01    7.8885601647101041E+01   -2.6788363052742913E+01
Pb   -1.6046251887523090E+02    9.7431973348980449E+01    5.1939395021401978E+01
Pb   -1.7461083469636475E+02    1.5000486640234556E+02    1.3766046354437083E+02
Pb    2.3751607194795479E+01   -1.5673674235240188E+02   -9.0302583098780858E+01
Pb    4.7229714250671677E+01   -2.2007752538916557E+02   -5.9851986252955740E+01
Pb    9.4608191854447327E+01   -2.3963623556922079E+02    3.4797941502258553E+01
Pb    1.0461229497295125E+01   -1.3120469280978207E+02   -1.0732759452353061E+02
Pb   -4.1097697519736009E+01   -2.4281850178824950E+01    2.2940935355047198E+01
Pb    5.8698491458764401E+01   -8.8106118649628257E+01    1.3199279136780669E+01
Pb    4.5835230038870627E+01    6.6135037248987430E+01   -5.9909812672835692E+01
Pb    2.3090788653806968E+01   -1.0900376648441572E+01    4.8306065306631183E+00
Pb   -8.5450908243695991E+01    1.3205031265925280E+02    8.5499235228985910E+01
Pb    2.5952354869103306E+02   -2.9184394882773267E+02   -1.1250604208782148E+02
Pb    1.7093858698898705E+02   -2.7375180556652145E+02   -2.7521267308623734E+01
Pb    1.8761860752882779E+02   -2.6997301966395986E+02   -8.5382155118874827E+00
Pb    2.3796770600261655E+02   -1.3060693748207612E+02   -1.0051563700644371E+02
Pb    1.4325272098509768E+02   -6.8274945044858868E+01   -2.4725483102143880E+01
Pb    8.5335765799707914E+01   -5.6307666696270772E+01    4.2928318588337035E+01
Pb    1.1501415564492065E+02   -6.3304539778636055E+01   -6.3361291986253761E+01
Pb    1.2584117139849613E+02   -3.7452372584805076E+01   -3.2289849291204696E+01
Pb    9.7218351381223513E+00    1.0763685375091774E+02    8.4181149290802139E+01
Cs   -1.7223695997375316E+01   -2.0751429276767550E+02   -1.0756810623934642E+02
Cs   -4.6631839127005222E+01   -8.1547564429238335E+01   -1.0711329565991486E+01
Cs   -1.2238770559153838E+02   -5.8790940052954106E+00    6.6762289361607827E+01
Cs   -1.9370022172470200E+01    3.3819565198771009E+01   -7.9035725030608518E+01
Cs   -1.2475336121656314E+01   -5.2919559882865812E+01   -6.7155412352473547E+01
Cs   -1.4253087293069379E+02   -1.1092370399016447E+01    4.9002367927214500E+01
Cs   -8.1836653919705100E+01    4.4913794281266576E+01   -4.5025245382234687E+01
Cs   -1.3442490503891699E+02    1.2667525567473464E+02   -1.3245458846658838E+01
Cs   -2.1822480341618885E+02    1.9688849276665934E+02    2.5149623556997167E+01
Cs    1.8900775229537948E+02   -2.8888816182402661E+02   -1.4390666156714954E+02
Cs   -1.0346556715142190E+00   -1.7234028604733220E+02   -4.9330130910332798E+01
Cs    1.5770172836835243E+02   -1.8225709469432209E+02   -5.2587793587593630E+01
Cs    5.7571058749329090E+01   -3.5343181542949090E+01   -8.2636856002268871E+01
Cs   -1.4194553885793452E+01   -8.7284137424184909E+00   -4.2881960305546540E+00
Cs   -9.6344219881099420E+00    1.6674274759047865E+01    7.4894370246841930E+01
Cs    9.6993351694393439E+00    7.7818530604051745E+01   -8.8041697500374852E+01
Cs   -2.4421653632883540E+01    1.3155378948251831E+02    1.2430184683416471E+01
Cs   -1.0323055384037106E+02    1.1387801356684612E+02    4.9928830221953419E+01
Cs    2.4053247314043165E+02   -2.8369711078639205E+02   -1.9486835063460393E+02
Cs    1.5648019309059183E+02   -2.3060084502376301E+02   -1.1949737283418179E+02
Cs    2.0992479398941194E+02   -3.2451858102918351E+02   -9.2818769777948205E+01
Cs    1.5364481380619031E+02   -7.3574351297205538E+01   -8.4034249985176203E+01
Cs    2.0506366501096406E+02   -1.0646348026141838E+02   -5.1378649747229872E+01
Cs    1.3354732398682998E+02   -8.9538392838236291E+01   -4.5475973964889668E+01
Cs    1.2338163304960410E+02    3.2853950827288621E+01    9.5954914594343599E+00
Cs    1.5841010571321362E+02    3.3702254270935285E+01    7.4709396746617259E+01
Cs    1.9439680469433135E+01    1.1817483586684639E+02    4.3238537197356827E+01
Cs    1.3722618092072155E+01   -7.5304361743288652E+01   -8.4128087425488843E+01
Cs    6.8426730447761699E+01   -6.3304090500586646E+01   -2.4972514537198055E+01
Cs   -4.4946458471487873E+01   -1.0596634335142740E+02    8.6727010064766702E+01
Cs   -1.2088994862611048E+02    1.9821847983851377E+01   -1.1607450865355224E+01
Cs   -1.0956102563109624E+02    1.4511718480811786E+02    7.2780186590000895E+01
Cs   -1.1105321506989526E+02    3.1617966916904297E+01    6.6513265829043718E+01
Cs   -1.2078579706718597E+02    2.1519873136541096E+02    1.1973582725598773E+00
Cs   -9.8139679123775394E+01    1.9789561808240072E+02    9.8113973495079961E+01
Cs   -1.4568868165351097E+02    3.0636972100429239E+02    1.2492747952088993E+02
Cs    2.1502563320048071E+02   -1.2693402758339246E+02   -9.3447909850799888E+01
Cs    1.3276675178214165E+02   -7.5783607413786285E+01   -3.3865911362598951E+01
Cs    7.3253664430467197E+01   -1.2306428569256373E+02   -1.2408933054851767E+01
Cs    6.5599703497293760E+01    5.1487539609150083E+01   -5.5459424956792624E+01
Cs    8.0806957121897923E+01   -5.2745633063258580E+01   -2.6393803282934940E+01
Cs   -2.1282107526105051E+01    8.7721588223250038E+01    4.8070010895774388E+01
Cs   -9.1563068837917356E+00    1.5503700699598045E+02   -4.2555503862694586E+01
Cs    3.9666681149726237E+01    1.6354641898630712E+02   -5.2592531034546816E+01
Cs   -1.4132989895514809E+01    2.2947002029161655E+02    4.9844343217378217E+01
Cs    2.5432723545805416E+02   -1.2398942089246039E+02   -8.9019420630688032E+01
Cs    3.3444230772971389E+02   -2.2151084939110859E+02   -1.2846891858505447E+02
Cs    1.4959827918027847E+02   -1.1545543344834086E+02    3.1763531666666054E+01
Cs    2.3865966390790675E+02   -1.4595851846827497E+02   -8.6372605966888770E+01
Cs    2.1193938245530188E+02   -8.4894795629995571E+01   -1.0726318179949268E+02
Cs    2.8022900308248416E+02   -9.1407841454633385E+01    6.7241398781350874E+00
Cs    1.4810398539953661E+02    6.9499364920154946E+01   -5.3146587458208408E+01
Cs    1.5991989402321582E+02    1.1798839479109836E+02   -1.3185354124039018E+01
Cs    1.6146882008002447E+02    9.1551935827430796E+01    3.4635371576553844E+01
Cs   -3.9546208232026949E+01   -9.3419825306582538E+01   -9.9894838291676152E+01
Cs   -1.3026212924304224E+02   -1.6480348954917062E+01   -1.6234811287982257E+01
Cs   -1.5960661202057648E+02    1.2266089099343960E+01    1.1370231644780782E+02
Cs   -5.6596075963387840E+01    6.2002133026839815E+01   -1.7822292426478130E+00
Cs   -1.9088332729095572E+02    6.9069334908902576E+01   -8.0831889875044372E+00
Cs   -1.2824453347944234E+02    3.0983287658278589E+00    1.0434437435796266E+02
Cs   -1.7223731992585218E+02    2.5472625512228913E+02    2.0383378021932490E+01
Cs   -2.1346054293424552E+02    2.3289500271423049E+02    8.4745481990059588E+01
Cs   -3.8513323030712246E+02    2.5001770554748296E+02    1.5738027130371526E+02
Cs    8.4083559306955010E+01   -7.7041076674125790E+01   -1.3370550435984364E+02
Cs    4.9801934595790334E+00   -7.2512487883805903E+01    8.9413900422074306E+00
Cs    4.6254547886794072E+01   -3.6141425824052178E+01    2.5891186827444919E+01
Cs    1.1798908399584365E+01   -1.1197827010149348E+01   -4.7166407775802291E+01
Cs   -3.7263765865890547E-01    2.8235748251522075E+01    1.2705010364511150E+01
Cs   -7.5948070416820087E+01    6.8700209727795624E+01    6.9384578577170714E+01
Cs   -6.5264215545158009E+01    1.5054649324725366E+02    3.2763845436556977E+01
Cs   -4.2364859253653520E+01    1.4965487548540619E+02    5.5984663279374772E+01
Cs   -1.5101674385437431E+02    1.7801955951888155E+02    1.6776612988981282E+02
Cs    1.8397845421079174E+02   -1.7372732703967949E+02   -9.6655818506403918E+01
Cs    2.1657540521830106E+02   -1.4539895284769759E+02   -2.8691137688818184E+01
Cs    1.8862342646927701E+02   -1.2270967961861909E+02    1.9611271661756010E+01
Cs    2.1101985770829742E+02   -6.1832882213779065E+01   -3.0632636173099272E+01
Cs    1.8845744431806256E+01    1.6003296362147495E+01    3.7438595991173329E+01
Cs    2.3525389189591099E+01    7.5889025241910218E+01    7.5377584948571979E+01
Cs    1.5854912034989997E+02    1.1433762769409424E+02   -2.0781058584583757E+01
Cs   -1.2474059006114214E+01    1.6858720115258785E+02    4.0730338372658650E+01
Cs    1.4060496636013404E+01    1.8313766884022101E+02    7.7756062016517092E+01
Cs   -1.3505458255591108E+02   -1.1329250544573584E+02   -5.1113388156512620E+01
Cs   -6.6840613164501107E+01   -1.6275415908617694E+02    7.9659814221524982E+01
Cs   -2.3268375843462141E+02    1.7667938844499940E+01    1.0167431181508339E+02
Cs   -2.3156957892929972E+02    2.2465536432149253E+01   -5.9720334605974628E+01
Cs   -2.1081452136278835E+02    4.6646653079538524E+01    5.9196432695817300E+01
Cs   -1.7204597497300267E+02    1.1940846846058657E+01    8.1849406797002004E+01
Cs   -2.0947968655028308E+02    2.2726345752740843E+02    4.3557761928258607E+01
Cs   -1.4482650032439167E+02    2.5458871275090789E+02    4.1825038021263850E+01
Cs   -1.9551592364320302E+02    1.7030463064393058E+02    1.4217541271236780E+02
Cs    1.6959937066926070E+01   -1.3983750414760345E+02   -6.4485554156804881E+01
Cs   -4.8761712792231265E+01   -1.5262664226459586E+02   -3.0361762553824228E+01
Cs    4.0061966523756539E+01   -1.7906399686716614E+02   -2.3784142362840093E+01
Cs    2.1525232486589939E+01   -4.7934648529828614E+01   -1.6344161203404258E+01
Cs   -6.7576378072664795E+01   -4.0424746606543806E+01    1.9428115434163440E+00
Cs   -6.1271874628071387E+01   -5.5661533273044220E+01   -6.4116684958431911E+00
Cs    1.6587125117084824E+01    6.2311548720293217E+01   -5.4360680239257199E+01
Cs   -3.5802790373665438E+01    8.0355692108245123E+01   -3.1574243935762002E+01
Cs   -1.4611513488276881E+02    2.4118765163594500E+02    8.2480274374372954E+01
Cs    1.1485454252700427E+02   -2.4665439156810191E+02   -9.2093578984567841E+01
Cs    1.6093772899838771E+02   -1.7373181672952276E+02   -6.9484839766854577E+01
Cs    1.4653662935388846E+02   -1.5411791126619480E+02   -6.2924970949652170E+00
Cs    9.6986495136628889E+01   -9.3007161089633186E+01   -1.2205921465755581E+02
Cs    3.6266321641014343E+01   -5.7858599265271174E+01   -3.0604408420889108E+01
Cs    6.9014220728066658E+00    2.6162359676958587E+01    1.6927377818482800E+01
Cs    9.1094896841907598E+01    3.9189457992722659E+01   -7.4748840761847219E+01
Cs    5.2721361278778474E+01    4.0047843991494787E+01   -7.9320296697241579E+00
Cs   -3.2340808405029101E+01    1.8887473077972030E+02    1.0591527574165798E+02
Br   -1.0856470275548561E+02   -1.3838656327715330E+02   -5.7143231109239672E+01
Br   -2.0367162772078956E+02    1.7276066163529006E+01    4.6035205305398414E+01
Br   -2.0373080945753631E+02   -1.4541734891098516E+01    6.6834395595451824E+01
Br   -1.3678433349535800E+02    7.2296964242652528E+00   -4.9628309751329965E+01
Br   -1.9294051524242812E+02    7.2787003139657870E+01    1.2505217682335116E+01
Br   -1.6505259978962280E+02    1.1053311101845471E+01    2.4452543316829349E+01
Br   -1.1281773016202138E+02    1.4111321847270821E+02   -4.1380217554752274E+00
Br   -2.3067559020709371E+02    2.7319918084115727E+02    6.6540128506064420E+01
Br   -2.5789074526966135E+02    2.6989021810154634E+02    1.0955625722745509E+02
Br   -2.8717056134115989E+01   -9.5610380967679944E+01   -9.4522841034858871E+01
Br   -2.5308793124053366E+01   -8.4584550435174222E+01   -3.8460835671054205E+01
Br   -6.7711154076540709E+01   -7.1550889102413620E+01   -2.3374335105762811E+00
Br    7.9908855601043228E+01   -8.4228325141390783E+01   -1.2849098670880329E+02
Br   -8.6675833543641954E+00    1.4864602660633778E+01    9.1708232018812783E+00
Br   -2.1350228384005469E+01    1.9835451464811364E+01    4.6598897914018018E+01
Br   -8.3339178710921786E+01    1.1429106789560998E+02   -1.0440571517927074E+01
Br    5.5806519404854953E+00    1.5631063437960506E+02    2.9812601621048085E+01
Br   -1.5389881615058061E+02    2.5121511836078915E+02    8.4124913371791891E+01
Br    2.2196137100722081E+02   -1.2520043793030882E+02   -9.8044247403100954E+01
Br    1.5733726559910622E+02   -1.8026213409454323E+02   -3.7794752382453325E+01
Br    1.5519864250571476E+02   -1.5805253593393476E+02   -2.4619050559001291E+01
Br    2.0134601739785938E+02   -5.6283338095865105E+01   -5.8854559810235386E+01
Br    1.4646676363333111E+02   -4.9697415065385094E+01   -8.7568295922168105E+01
Br    1.3981025082617732E+01   -5.9011520038472485E+00    2.3080061028833047E+01
Br    5.2573956100368626E+01    1.1340617017032143E+02   -5.3815117459317158E+01
Br   -1.1009373542186069E+01    1.5334954555257545E+02   -1.9764026048580643E+01
Br   -1.3722632094255303E+02    2.1434994632046704E+02    1.1744441413609502E+02
Br   -9.5275122230755201E+01   -1.6966966645830138E+02   -1.5941839365830605E+01
Br   -6.9872910968622890E+01   -6.0864853978426012E+01   -1.4099463933656205E+01
Br   -2.5193089298213690E+02    3.0983251517578427E+01    7.4607929941768631E+01
Br   -2.4442892998484922E+02    5.3475505504494315E+01    8.7175997469109433E+01
Br   -2.6566166506690041E+02    5.2628653720930345E+01    2.3283018722676825E+01
Br   -1.9411788608946540E+02   -2.6784281829740397E+01    6.7102404206055311E+01
Br   -2.2447626849229943E+02    2.1722993538276108E+02    2.8704840054189972E+01
Br   -2.3408002349581560E+02    2.0444091421769855E+02    9.8942209916310645E+01
Br   -4.0680135063257831E+02    2.3622768892407484E+02    1.7558977368292682E+02
Br    3.8642287042954853E+00   -1.4823225056810159E+02   -8.2332341156310548E+01
Br    1.8903239241627568E+02   -1.7880282472446709E+02   -5.9975638753171665E+01
Br   -5.7667475504834186E+01   -9.9522847356304396E+01    8.8865520237527321E+01
Br    1.7008457679942463E+01    1.8812968702397348E+00   -8.4671427195094310E+01
Br   -1.8116095775378469E+02    3.7740395635345614E+01    4.8180071484645460E+01
Br   -6.6575459735442237E+01    3.9543463723618267E+01    3.8005320454224545E+01
Br   -1.5425839423288164E+02    2.4035783386548800E+02    6.8622209592202754E+00
Br    8.7207350294887931E+00    1.5357363844810286E+02    3.9434958604285626E+01
Br   -1.4522112965413592E+02    1.5472832726580242E+02    1.5408625934482873E+02
Br    1.6961941221132923E+02   -1.8323291042727007E+02   -9.3961168737002168E+01
Br    2.3556966591966517E+02   -1.7701580567380600E+02   -3.1959022142864473E+01
Br    1.1832659487699013E+02   -1.6327221191796525E+02    6.3386274795136917E+00
Br    9.8409977559631500E+01   -2.6883460525213128E+01   -6.5020686079087838E+01
Br    3.7637465049034255E+01   -3.9277666039725730E+01   -4.7239168656003272E+01
Br    1.1967642812441500E+01    3.3903286085530837E+01    1.4680268073039338E+02