 # Version information for this restart file 
 # current date 2020-12-23 15:02:31.305
 # current working dir /Users/bvanbeek/Downloads/MM_MD_workdir/md
 # Program compiled at                             Fri Apr 19 11:24:34 CEST 2019
 # Program compiled on                                             192.168.1.124
 # Program compiled for                           Darwin-IntelMacintosh-gfortran
 # Source code revision number                                         svn:18464
 &GLOBAL
   PRINT_LEVEL  LOW
   PROJECT_NAME cp2k
   RUN_TYPE  MD
 &END GLOBAL
 &MOTION
   &MD
     ENSEMBLE  NPT_F
     STEPS  10000
     TIMESTEP     2.4999999999999996E+00
     STEP_START_VAL  10000
     TIME_START_VAL     2.4999999999995482E+04
     ECONS_START_VAL    -5.5495911227455137E+00
     TEMPERATURE     3.0000000000000000E+02
     &BAROSTAT
       PRESSURE     1.0100000000000000E+00
       TIMECON     4.9999999999999994E+02
       &VELOCITY
            -2.4903187116627200E-07    1.5433238368728107E-06    2.0721135944422545E-06    1.5433238368728102E-06 \
            -2.7875134772284402E-06    2.5898151365596266E-06    2.0721135944422562E-06    2.5898151365595809E-06    1.4172946771617569E-06
       &END VELOCITY
       &MASS
             2.1920353963970435E+08    2.1920353963970435E+08    2.1920353963970435E+08    2.1920353963970435E+08 \
             2.1920353963970435E+08    2.1920353963970435E+08    2.1920353963970435E+08    2.1920353963970435E+08    2.1920353963970435E+08
       &END MASS
       &THERMOSTAT
         TYPE  CSVR
         &CSVR
           TIMECON     9.6755373060191392E+00
           &THERMOSTAT_ENERGY
                 3.8298364542825020E-01
           &END THERMOSTAT_ENERGY
           &RNG_INIT
Wiener process for Thermostat # 1        1 F T F  -1.9993213950082914E-01        1488978103.0        1816783171.0        3521618880.0         313128014.0        1687920035.0         276803768.0             12345.0             12345.0             12345.0             12345.0             12345.0             12345.0             12345.0             12345.0             12345.0             12345.0             12345.0             12345.0
           &END RNG_INIT
         &END CSVR
       &END THERMOSTAT
     &END BAROSTAT
     &THERMOSTAT
       TYPE  CSVR
       &CSVR
         TIMECON     4.9999999999999994E+02
         &THERMOSTAT_ENERGY
              -3.8264165826702667E+00
         &END THERMOSTAT_ENERGY
         &RNG_INIT
Wiener process for Thermostat # 1        1 F T F  -2.1791033143691036E+00        4046288456.0         260102701.0        3248717019.0        2304254512.0        2989348235.0        4064107521.0             12345.0             12345.0             12345.0             12345.0             12345.0             12345.0             12345.0             12345.0             12345.0             12345.0             12345.0             12345.0
         &END RNG_INIT
       &END CSVR
       &PRINT
         &TEMPERATURE  ON
           FILENAME 
           &EACH
             MD  10
           &END EACH
         &END TEMPERATURE
       &END PRINT
     &END THERMOSTAT
     &AVERAGES  T
       &RESTART_AVERAGES
         ITIMES_START  1
         AVECPU     2.8777551200054520E-02
         AVEHUGONIOT     0.0000000000000000E+00
         AVETEMP_BARO     7.9667994521083483E+02
         AVEPOT    -4.2084256824678308E+00
         AVEKIN     6.8895479324817510E-01
         AVETEMP     2.6908405350523913E+02
         AVEKIN_QM     0.0000000000000000E+00
         AVETEMP_QM     0.0000000000000000E+00
         AVEVOL     5.7635328580320634E+07
         AVECELL_A     4.0511055301855816E+02
         AVECELL_B     4.0884635435017748E+02
         AVECELL_C     2.0256957421279856E+02
         AVEALPHA     6.9508200466834339E+01
         AVEBETA     1.1336977188080415E+02
         AVEGAMMA     1.0928091307049918E+02
         AVE_ECONS    -1.4353627858131757E+00
         AVE_PRESS     2.8525392460344277E+00
         AVE_PXX     2.4687750912470481E+00
       &END RESTART_AVERAGES
     &END AVERAGES
   &END MD
   &PRINT
     &TRAJECTORY  ON
       &EACH
         MD  10
       &END EACH
     &END TRAJECTORY
     &CELL  ON
       FILENAME 
       &EACH
         MD  10
       &END EACH
     &END CELL
     &FORCES  ON
       FILENAME 
       &EACH
         MD  10
       &END EACH
     &END FORCES
   &END PRINT
 &END MOTION
 &FORCE_EVAL
   METHOD  FIST
   STRESS_TENSOR  ANALYTICAL
   &MM
     &FORCEFIELD
       VDW_SCALE14     1.0000000000000000E+00
       EI_SCALE14     1.0000000000000000E+00
       SHIFT_CUTOFF  T
       DO_NONBONDED  T
       IGNORE_MISSING_CRITICAL_PARAMS  T
       &SPLINE
         R0_NB     1.0000000000000001E-01
       &END SPLINE
       &NONBONDED
         &LENNARD-JONES
           ATOMS Cs Cs
           EPSILON     2.2644852172126850E+01
           SIGMA     5.8500000000000005E+00
         &END LENNARD-JONES
         &LENNARD-JONES
           ATOMS Cs Pb
           EPSILON     8.6920055954630953E+01
           SIGMA     5.1000000000000005E+00
         &END LENNARD-JONES
         &LENNARD-JONES
           ATOMS Br Pb
           EPSILON     2.0528187276773045E+02
           SIGMA     2.9000000000000004E+00
         &END LENNARD-JONES
         &LENNARD-JONES
           ATOMS Br Cs
           EPSILON     5.3481070753900497E+01
           SIGMA     3.8500000000000005E+00
         &END LENNARD-JONES
         &LENNARD-JONES
           ATOMS Br Br
           EPSILON     1.2630795322675199E+02
           SIGMA     4.2599999999999998E+00
         &END LENNARD-JONES
         &LENNARD-JONES
           ATOMS Pb Pb
           EPSILON     3.3363415533600221E+02
           SIGMA     5.9800000000000004E+00
         &END LENNARD-JONES
       &END NONBONDED
       &CHARGE
         ATOM Cs
         CHARGE     2.0000000000000001E-01
       &END CHARGE
       &CHARGE
         ATOM Pb
         CHARGE     4.0000000000000002E-01
       &END CHARGE
       &CHARGE
         ATOM Br
         CHARGE    -2.0000000000000001E-01
       &END CHARGE
     &END FORCEFIELD
     &POISSON
       PERIODIC  XYZ
       &EWALD
         EWALD_TYPE  SPME
         GMAX  22
         O_SPLINE  4
       &END EWALD
     &END POISSON
     &PRINT
       &FF_INFO  LOW
         SPLINE_INFO  F
         SPLINE_DATA  F
       &END FF_INFO
     &END PRINT
   &END MM
   &SUBSYS
     &CELL
       A     4.3537847173993686E+02   -1.6122435240785163E+02   -9.3521723953561263E+01
       B    -1.7863505432880106E+02    4.3422956163248932E+02    9.1086975203346384E+01
       C    -1.0179685697639576E+02    8.3812177735984221E+01    1.8047410670800005E+02
       PERIODIC  XYZ
       MULTIPLE_UNIT_CELL  1 1 1
     &END CELL
     &COORD
Br   -2.1852311835899371E+02    2.2738950472677246E+02    1.1393936565414512E+02
Br   -2.5193716791599800E+02    2.4731076575032176E+02    1.5705036757607300E+02
Br    3.7642827679490786E+01   -1.5406582361089232E+02   -4.0282883215401256E+01
Br   -7.4811074197537266E+01   -1.6199649990517614E+01    4.6916644089522869E+01
Br    7.9376620515164504E+01   -1.1883820608159442E+02   -1.4429410787615101E+01
Br    3.3236789067556089E+01   -2.5106444969130312E+01   -5.2301967270901599E+01
Br   -2.5742421705629376E-01    3.1682568441471388E+00   -1.9830080203364300E+01
Br   -1.2385541016099777E+01    1.5067438370153230E+01    4.2184239156511026E+01
Br   -7.3168838054963885E+01    1.3277851247433696E+02    3.6979851060805345E+01
Br   -7.2385576270467993E+01    1.6631254598398874E+02    7.1794240306652426E+01
Br   -9.0861283518551261E+01    1.7455875217620050E+02    9.4254997842679046E+01
Br    1.7857185236421788E+02   -1.7769535179188998E+02   -1.2197767062212840E+02
Br    1.4744852985258620E+02   -7.0155051000615572E+01   -2.6086945371130419E+01
Br    1.9340903735808564E+02   -1.3380444582644600E+02   -2.1320636643009255E+01
Br    1.5226733799685326E+02   -1.0337157658136796E+02   -2.7957402231488647E+01
Br    1.3359350904394910E+02   -3.8297350814622405E+01   -1.0822732573968864E+01
Br    6.0804366343847960E+01    1.0238813065089667E+01   -2.1357985924695321E+01
Br    7.1437996122908686E+01    1.6714606443872921E+02   -7.8534699731875781E+00
Br    1.5121368995697850E+02    1.3398842150061338E+02   -1.5579369656184893E+01
Br    1.3647044382923518E+01    1.1023291618045045E+02    2.8990015614610186E+01
Pb   -1.6378615416057923E+02   -6.2576565764727690E+01   -4.9302213429734543E+01
Pb   -8.5700050428416603E+01   -1.0864111838263081E+02    2.5570075691027480E+01
Pb   -2.0172833688029129E+02   -1.3568862104698361E+01    6.8175141812060858E+01
Pb   -6.9229862788448500E+01   -1.3465228471987700E+02   -1.2228946301613573E+02
Pb   -2.2643628839725815E+02    8.7095971722950182E+01    2.4316072584971700E+01
Pb   -1.5039693070799356E+02    3.5530402573936414E+01    3.7239813668617273E+01
Pb   -2.9876492886497033E+02    1.4941406125334359E+02   -1.1366875265667318E+01
Pb   -2.4373133614887917E+02    2.1816641871740697E+02    3.0588520933753085E+01
Pb   -2.2551688034119192E+02    2.0093134665777089E+02    8.8009931433418203E+01
Pb    3.9416823885459493E+01   -1.5979030643374668E+02   -7.7270366678679082E+01
Pb   -2.4304547607322609E+00   -1.2599879922864595E+02   -1.5594309011513545E+01
Pb   -6.9137995877071589E+01   -9.4184656831586295E+01    2.4920536165027420E+00
Pb    3.7428815229291196E+01   -4.4768109458138959E+01   -1.3696543769327380E+02
Pb   -4.3702735006006385E+01    2.2635563737831575E+01   -6.9022754868595806E+00
Pb   -1.4776784314787034E+02    6.1710454162725959E+01    3.2087961211629690E+01
Pb   -9.8533456928826951E+01    1.2510704492146112E+02   -1.6736234366846855E+01
Pb   -1.1131399729514192E+02    2.6900945300849457E+02    4.4524255547428680E+01
Pb   -2.0330703449415401E+02    2.5050614370691721E+02    1.2371612744703572E+02
Pb    1.8869677603988700E+02   -2.6954491595359326E+02   -1.7192551676067413E+02
Pb    1.6246506606590955E+02   -1.9920154243165723E+02   -8.9108887726895333E+01
Pb    1.7677190775793213E+02   -1.6030626146733263E+02   -3.7704297381554866E+01
Pb    1.1483812915742075E+02   -6.0854674042334054E+01   -3.8157600678194008E+01
Pb    1.5761270025287411E+02   -7.3459917259034754E+01   -4.7064670542874609E+01
Pb   -7.5834590797661505E+00    1.6688446741474504E+01    2.2876402562986575E+00
Pb    5.4154213619613586E+01    1.2139779676176579E+02   -5.5581807218147098E+01
Pb    3.8986205101173530E+00    1.4109999387373583E+02   -2.6346514793840388E+01
Pb    1.4474086798252699E+01    1.1230126936475537E+02    3.7330656476782856E+01
Pb   -1.3370754389731317E+02   -9.8681686101986074E+01   -4.0339051119265392E+01
Pb   -8.8300470638754632E+01   -1.1211578550668146E+02   -1.5455057433323973E+00
Pb   -8.6858785403748456E+01   -6.0059130718379159E+01    8.6666168249540490E+01
Pb   -1.3707064953985986E+02    1.2353329181551231E+01   -4.6176143330709628E+01
Pb   -1.2577622288342137E+02    3.8217807894039623E+01    2.3662951703493935E+01
Pb   -1.0352860862659438E+02   -1.8359893584280545E+01    5.5013931691701465E+01
Pb   -1.4371264904048246E+02    1.6344979934323507E+02   -2.5075357544359111E+01
Pb   -2.1342409462542446E+02    2.1718440758853609E+02    1.1495394751453523E+02
Pb   -2.5999964989025847E+02    2.4713668362695540E+02    9.7830431695365476E+01
Pb    5.8756560468382425E+01   -1.5738010932793085E+02   -5.8920677462520146E+01
Pb    1.8829223351169173E+02   -1.7817977339240011E+02   -6.3422746014247267E+01
Pb    1.0159081104439085E+02   -1.4214302000798901E+02    1.1444697385284456E+01
Pb    1.8299924694900373E+01   -2.5237419006430062E-02   -8.6784563577046498E+01
Pb    3.0893907554130160E+00    6.2909833568114388E+00   -1.9791159763590947E+01
Pb   -1.3282405896684908E+01    1.2509929530114698E+01    4.3187598100952940E+01
Pb   -7.2541750659833880E+01    1.3858050887771159E+02    3.7139136539620345E+01
Pb    7.3655563204396923E+00    1.4813539580112166E+02    4.3690495578680881E+01
Pb   -9.0828332950694531E+01    1.7184043010309253E+02    9.1767347732354708E+01
Pb    1.6901481295116429E+02   -1.9512953469001008E+02   -9.8335797571420699E+01
Pb    2.2662541480146655E+02   -1.7078328614555062E+02   -2.8838626719895412E+01
Pb    1.7791140972125464E+02   -1.7439755573984002E+02   -2.5557870159115559E+01
Pb    1.7835680541930009E+02   -8.8196040862318071E+01   -7.2728174797382906E+01
Pb    1.8584968247183804E+02   -8.1125109128639224E+01   -5.0586864421180870E+01
Pb    2.2837341408310007E+01    7.3814276434711490E-01    2.6314802887436738E+01
Pb    5.6356892017831640E+01    1.1455137982165438E+02   -4.9681420109584110E+01
Pb    1.8306300765569958E+02    5.5584251206581641E+01   -2.8793835563930443E+01
Pb   -2.4527125266631722E+00    1.2144771849954064E+02    2.4392946598225397E+01
Pb   -1.0005800536479545E+02   -1.7279110510838683E+02   -1.0791044777765339E+02
Pb   -1.1826049187177782E+02   -1.1336041661556557E+02   -2.8125022925193068E+00
Pb   -6.7614008678193656E+01   -2.0894793286974527E+02    3.8806416283401759E+01
Pb   -1.3612684519392761E+02   -4.1480186302083808E+01   -9.1759966923302144E+01
Pb   -2.2588795057986957E+02    3.5590473227868543E+01    1.3154927191923676E+01
Pb   -1.7839303835146157E+02   -5.9959913080398834E+00    4.1357571620407732E+01
Pb   -3.2288124871697994E+02    1.3613382040986517E+02   -2.2964478657033558E+00
Pb   -2.5699082445270426E+02    1.2621672440029697E+02    7.4560749157680831E+01
Pb   -2.5447276344673182E+02    1.6580691586879223E+02    6.4681868583656680E+01
Pb    4.9441362983508469E+01   -2.3273534791097330E+02   -1.0005883185172945E+02
Pb    5.8540714333711099E+00   -1.5483112504485450E+02   -7.0172846647762995E+01
Pb   -4.4676262025019824E+01   -1.3996668658915857E+02    5.7469563113121893E+00
Pb   -2.6129625906747641E+01   -9.1253757511514152E+01   -9.5253600234424894E+01
Pb   -4.3658441876235415E+01   -4.7315360615612164E+01   -3.7071648040408114E+01
Pb   -6.5485743227876753E+01   -3.2279520206573373E+01    2.9146047575356949E+01
Pb   -4.4847475360415757E+01    5.5354064501562092E+01   -4.2375349828447725E+01
Pb   -4.1163591349588827E+01    3.6302652415119113E+01   -1.8077959439663509E+01
Pb   -1.1889818345000346E+02    1.7247369737728695E+02    1.1848989425480138E+02
Pb    2.2163940226134915E+02   -3.0754404547894586E+02   -1.7460454658821101E+02
Pb    4.5745604295513687E+01   -2.0221454367320342E+02   -5.5854699229089917E+01
Pb    1.7903288425470481E+02   -1.8221230142759805E+02   -3.2316541995433319E+01
Pb    1.0733455820254905E+02   -7.9256652163434794E+01   -1.5074579982375232E+02
Pb    6.5877167760846078E+01   -5.4371092445747742E+01   -3.5254594005459715E+01
Pb    1.3046691808722036E+02   -9.6396305463869766E+01   -2.0910869922866738E+01
Pb    1.3732693783808040E+02   -1.9476615680211872E+01   -9.4379386625220519E+01
Pb    8.9788732361133725E+01    1.0347026419351321E+01   -3.9587667278855192E+00
Pb    5.3629807751480918E+01    4.8437025377534404E+00   -1.4817096048365643E+01
Pb   -1.1089517707563452E+02   -8.9963042056928245E+01   -7.8278974586644651E+01
Pb   -5.6081980095846804E+00   -1.7061716969638621E+02   -3.5931013659773889E+01
Pb   -8.4838114509956611E+01   -1.7627223056951183E+02    7.9134119624999244E+01
Pb   -5.7065394874628971E+01   -8.2389892371897815E+01   -9.7144350530758601E+01
Pb   -1.1329294439071181E+02   -5.3254110300441361E+01   -1.2479629215548028E+01
Pb   -1.4327297925203402E+02   -2.3206840588386054E+01    9.3130132687730651E+01
Pb   -5.0418917056228331E+01    7.8122680538588568E+01   -2.6735659478156318E+01
Pb   -1.5981538253278507E+02    9.6638283209616262E+01    5.1878726955755120E+01
Pb   -1.7340729149657054E+02    1.4932329904592189E+02    1.3809226788906659E+02
Pb    2.2751124622029721E+01   -1.5614559272864491E+02   -9.1379665145785111E+01
Pb    4.6224091722867470E+01   -2.1907289022574525E+02   -6.1055989794583489E+01
Pb    9.4051499039160760E+01   -2.3781925844213771E+02    3.4173936994511415E+01
Pb    9.5281213735205554E+00   -1.3101703493798379E+02   -1.0845975651786435E+02
Pb   -4.1138724521070770E+01   -2.4121898229977404E+01    2.2737085651106625E+01
Pb    5.8490108706804655E+01   -8.7307647970618760E+01    1.3040132348415717E+01
Pb    4.5777512163223797E+01    6.5641210764342603E+01   -5.9610393423430466E+01
Pb    2.2990827262018236E+01   -1.0813118388026089E+01    4.9314624983248949E+00
Pb   -8.4604447619655048E+01    1.3152335490468221E+02    8.6116198440359625E+01
Pb    2.5794302973764388E+02   -2.8996594097921871E+02   -1.1315556990012097E+02
Pb    1.6986229362622939E+02   -2.7184519072915265E+02   -2.8231081562207333E+01
Pb    1.8659383516735025E+02   -2.6798768112654454E+02   -9.0063620153288415E+00
Pb    2.3692069424857576E+02   -1.2962574333549458E+02   -1.0049441694567977E+02
Pb    1.4274224661439897E+02   -6.7540425241242147E+01   -2.4369257737143371E+01
Pb    8.5222287447729087E+01   -5.5521871484024075E+01    4.3200651030383099E+01
Pb    1.1428228839272471E+02   -6.2925812494720539E+01   -6.3411840908167811E+01
Pb    1.2547689807233671E+02   -3.7018036514175726E+01   -3.1995996780031842E+01
Pb    1.0402235318101898E+01    1.0750364388434082E+02    8.5116005373984422E+01
Cs   -1.8309881522051914E+01   -2.0690839902183100E+02   -1.0914129578470055E+02
Cs   -4.6875304394995126E+01   -8.1201241490300163E+01   -1.1364671277196001E+01
Cs   -1.2191445057551861E+02   -5.7408839748483818E+00    6.6296368832429280E+01
Cs   -1.9627472244514518E+01    3.3323864426862862E+01   -7.9286830002326809E+01
Cs   -1.2889103449187276E+01   -5.3008660217773318E+01   -6.7812177546744678E+01
Cs   -1.4229069177803487E+02   -1.1260761468145661E+01    4.8417609339766777E+01
Cs   -8.1766427833113241E+01    4.4166151992538587E+01   -4.5360637725405077E+01
Cs   -1.3404823877645185E+02    1.2548070641685113E+02   -1.3343408505632992E+01
Cs   -2.1735052175359914E+02    1.9530701516808901E+02    2.5146859323437322E+01
Cs    1.8737682785462934E+02   -2.8738582992765197E+02   -1.4502999760536346E+02
Cs   -1.8612443214582992E+00   -1.7170475346226880E+02   -5.0478762770886050E+01
Cs    1.5686856921672097E+02   -1.8098469224309059E+02   -5.3007041565437838E+01
Cs    5.6997166247554773E+01   -3.5357703822773964E+01   -8.2821070106165791E+01
Cs   -1.4197580102444681E+01   -8.8629345560172670E+00   -4.4213513415414170E+00
Cs   -9.0803434010543551E+00    1.6948548525116774E+01    7.5300836455162980E+01
Cs    9.5379605514813033E+00    7.6983902628829355E+01   -8.7965382803787847E+01
Cs   -2.3995588357538310E+01    1.3082518195719612E+02    1.3085668894509302E+01
Cs   -1.0267650527094712E+02    1.1313417877299723E+02    5.0230106391494004E+01
Cs    2.3846009871218678E+02   -2.8233834972734019E+02   -1.9598529877647195E+02
Cs    1.5501785267124211E+02   -2.2945451475843450E+02   -1.2043386492591985E+02
Cs    2.0823203221803595E+02   -3.2256025940582788E+02   -9.3910411005987442E+01
Cs    1.5291363947449636E+02   -7.3120332646798616E+01   -8.3940665545747237E+01
Cs    2.0441302770998161E+02   -1.0546873613834489E+02   -5.1094982201849611E+01
Cs    1.3286887522992095E+02   -8.9004057701028415E+01   -4.5571608830671558E+01
Cs    1.2346001165747187E+02    3.3023861978818076E+01    1.0451992585779262E+01
Cs    1.5884626648349811E+02    3.4392042662209448E+01    7.6090880263541877E+01
Cs    1.9968417108549886E+01    1.1786594038975750E+02    4.4095016996035419E+01
Cs    1.3104388075432336E+01   -7.5258243568962058E+01   -8.4759645288589056E+01
Cs    6.8103401703611155E+01   -6.2847473791489392E+01   -2.4989785892835112E+01
Cs   -4.4801228467643512E+01   -1.0504840384535804E+02    8.6403233334340783E+01
Cs   -1.2084823493774886E+02    1.9307686110333506E+01   -1.2064283384849563E+01
Cs   -1.0864999020990953E+02    1.4435206264513744E+02    7.3284515884848744E+01
Cs   -1.1055213969122821E+02    3.1467909978339641E+01    6.6429936256122403E+01
Cs   -1.2006301148347018E+02    2.1361067785032964E+02    1.7233346628511368E+00
Cs   -9.6965028482107286E+01    1.9691812012907906E+02    9.9028744880240978E+01
Cs   -1.4399809557580582E+02    3.0494195490187013E+02    1.2629590250433169E+02
Cs    2.1407931187339844E+02   -1.2600942564888619E+02   -9.3401240441641093E+01
Cs    1.3222833573315103E+02   -7.5134277981244480E+01   -3.3647027269174416E+01
Cs    7.2679961027031254E+01   -1.2219187822733335E+02   -1.2777516745327942E+01
Cs    6.5482945335899373E+01    5.1121778414381708E+01   -5.5062230966877657E+01
Cs    8.0494786545272888E+01   -5.2345976019372792E+01   -2.6369748103986488E+01
Cs   -2.0789471812331328E+01    8.7360505231344774E+01    4.8575946042756620E+01
Cs   -8.9573734525459461E+00    1.5387828737122697E+02   -4.1972362114590233E+01
Cs    3.9899501595706568E+01    1.6252152565057941E+02   -5.1853219312888363E+01
Cs   -1.3108909897545391E+01    2.2839204051864292E+02    5.1118882265567258E+01
Cs    2.5330354535024125E+02   -1.2287991599304149E+02   -8.8785240617487645E+01
Cs    3.3287024757125414E+02   -2.1997474166781672E+02   -1.2852293572759069E+02
Cs    1.4926019478196503E+02   -1.1417893567827639E+02    3.1989303611022432E+01
Cs    2.3757890679654807E+02   -1.4490059868713197E+02   -8.6209468922804504E+01
Cs    2.1091770811954603E+02   -8.4341897246739208E+01   -1.0719951595118552E+02
Cs    2.7986764915815326E+02   -9.0050854275959708E+01    7.6477608783963777E+00
Cs    1.4787785498139203E+02    6.9308851222442783E+01   -5.2238954967372734E+01
Cs    1.6008981893540664E+02    1.1773703436917837E+02   -1.1793040239753633E+01
Cs    1.6188056146496291E+02    9.1592429086423536E+01    3.5934525552119418E+01
Cs   -4.0280097947666967E+01   -9.3503644293249934E+01   -1.0101447329139988E+02
Cs   -1.3034391926114142E+02   -1.6801670582378790E+01   -1.7115895367822954E+01
Cs   -1.5885064833668224E+02    1.2400487200479935E+01    1.1354540678810645E+02
Cs   -5.6255301831176673E+01    6.1547676310930463E+01   -1.6963559573089975E+00
Cs   -1.9058466507844446E+02    6.8054966289057603E+01   -8.8444147135030562E+00
Cs   -1.2766309890740574E+02    3.1357573513939818E+00    1.0420297720167306E+02
Cs   -1.7125647912738378E+02    2.5278605883924203E+02    2.0952538950399759E+01
Cs   -2.1220529681931023E+02    2.3136861994360234E+02    8.5203465065117840E+01
Cs   -3.8336310045981941E+02    2.4824056956765438E+02    1.5738650428430597E+02
Cs    8.3215445336976330E+01   -7.6991557066130724E+01   -1.3427224671528128E+02
Cs    4.7693068929800795E+00   -7.2055570932140853E+01    8.6378466788199493E+00
Cs    4.6299668116111107E+01   -3.5655125656853748E+01    2.5967362156375515E+01
Cs    1.1447291779369888E+01   -1.1369347910466402E+01   -4.7329002313124050E+01
Cs   -1.8518731156896320E-01    2.8067725216501657E+01    1.2833194935863744E+01
Cs   -7.5349798976559114E+01    6.8412152190840715E+01    6.9617230472062658E+01
Cs   -6.4577716203616163E+01    1.4963170162419539E+02    3.3370224087810534E+01
Cs   -4.1658012197982437E+01    1.4901783994979471E+02    5.6833082658981780E+01
Cs   -1.4962837125961764E+02    1.7734861421108349E+02    1.6860359656556244E+02
Cs    1.8284978771733034E+02   -1.7250314214210687E+02   -9.6986698447368155E+01
Cs    2.1575468782293720E+02   -1.4409244998974765E+02   -2.8556451084013204E+01
Cs    1.8820001252933594E+02   -1.2132997444575004E+02    1.9873169424123034E+01
Cs    2.1055765879228514E+02   -6.1032217610750060E+01   -2.9955079688659588E+01
Cs    1.8934904278381719E+01    1.6116589724789055E+01    3.7738725894700458E+01
Cs    2.4081753427850987E+01    7.5873155013494099E+01    7.6138055060648526E+01
Cs    1.5869784289933907E+02    1.1400471317406981E+02   -1.9510174805696870E+01
Cs   -1.1876069781449912E+01    1.6780761308781817E+02    4.1744679675793904E+01
Cs    1.4944582879980340E+01    1.8259551734428337E+02    7.8963031794110378E+01
Cs   -1.3548354911895706E+02   -1.1328604023933336E+02   -5.2570269516642469E+01
Cs   -6.6832409029788096E+01   -1.6168078776820244E+02    7.8833536319956153E+01
Cs   -2.3189195191796364E+02    1.7431265697154121E+01    1.0093043199937314E+02
Cs   -2.3166043220063733E+02    2.1375569177809499E+01   -6.0998160227270958E+01
Cs   -2.1025892920477750E+02    4.6016234236013069E+01    5.8663918040920009E+01
Cs   -1.7143230012413244E+02    1.1776362332261705E+01    8.1371193448973457E+01
Cs   -2.0843601489031894E+02    2.2560999549308613E+02    4.3917198893901478E+01
Cs   -1.4367575098731123E+02    2.5311478356321228E+02    4.2674098275227131E+01
Cs   -1.9412341092069283E+02    1.6944990134682899E+02    1.4270848072511990E+02
Cs    1.6223585155034318E+01   -1.3930271173763461E+02   -6.5371994945793887E+01
Cs   -4.9408408254624895E+01   -1.5212368111020822E+02   -3.1482994741322678E+01
Cs    3.9360622160777851E+01   -1.7810215939738441E+02   -2.4673855048462059E+01
Cs    2.1322252583844133E+01   -4.7677172084818757E+01   -1.6470371643657217E+01
Cs   -6.7586934105183275E+01   -4.0444382941229065E+01    1.4744141946216076E+00
Cs   -6.1463632389237866E+01   -5.5493513047176990E+01   -7.1051134485836505E+00
Cs    1.6536520168584492E+01    6.1750665935451160E+01   -5.4209698532350700E+01
Cs   -3.5737454770075040E+01    7.9640511668189617E+01   -3.1534599642075246E+01
Cs   -1.4489369249879732E+02    2.3991190938657434E+02    8.3292699646505383E+01
Cs    1.1364210222915992E+02   -2.4535681991469966E+02   -9.3100212863562447E+01
Cs    1.6005832677178788E+02   -1.7260407892874733E+02   -6.9909751028594641E+01
Cs    1.4588534955832566E+02   -1.5278847136048572E+02   -6.3694898932797335E+00
Cs    9.5959606108400791E+01   -9.2842370496997219E+01   -1.2263930433711582E+02
Cs    3.5907256274298966E+01   -5.7629083002196587E+01   -3.0927796506590266E+01
Cs    7.0963828588196796E+00    2.6363005660124706E+01    1.7090850389059376E+01
Cs    9.0772461051347946E+01    3.8853343358812531E+01   -7.4397932136174546E+01
Cs    5.2766127861973402E+01    3.9887764416843623E+01   -7.4603388878002175E+00
Cs   -3.1207036737533212E+01    1.8830714339475870E+02    1.0712643578856925E+02
Br   -1.0906047662954208E+02   -1.3838408005482265E+02   -5.8690601204688697E+01
Br   -2.0337873153386022E+02    1.6871891605740004E+01    4.5382062514971338E+01
Br   -2.0319315361579575E+02   -1.4689730704929485E+01    6.5925644930630099E+01
Br   -1.3689764492045938E+02    6.5257350740852482E+00   -5.0452461511739976E+01
Br   -1.9253119113228541E+02    7.1888757113085333E+01    1.2017084212315279E+01
Br   -1.6479507044422181E+02    1.0509483972780304E+01    2.3705590915219545E+01
Br   -1.1229501102387154E+02    1.3992441319078941E+02   -3.9119180554232198E+00
Br   -2.2940964282196728E+02    2.7150528512053563E+02    6.7003737268096941E+01
Br   -2.5633355142977609E+02    2.6835283249048956E+02    1.1006520600744946E+02
Br   -2.9427064515372365E+01   -9.5583724192241547E+01   -9.5585355276977339E+01
Br   -2.5745183227169910E+01   -8.4259686201200722E+01   -3.9196797112601772E+01
Br   -6.7954086783468128E+01   -7.1469590478232334E+01   -3.0801778332601089E+00
Br    7.8957372390440653E+01   -8.4144418208868515E+01   -1.2907782945030661E+02
Br   -8.5793604772323988E+00    1.4717220593055542E+01    9.2616571924202464E+00
Br   -2.1035869662878980E+01    1.9888770856187893E+01    4.6710635925435156E+01
Br   -8.2937019591885274E+01    1.1330212119638888E+02   -1.0258017123689170E+01
Br    6.2544435001442071E+00    1.5567980997413127E+02    3.0818626433855787E+01
Br   -1.5242313125747603E+02    2.4987315811416778E+02    8.4961869327405310E+01
Br    2.2106260234193874E+02   -1.2429601492626053E+02   -9.7932973633108901E+01
Br    1.5638623710216157E+02   -1.7888162340367811E+02   -3.8130231818629753E+01
Br    1.5445141273831189E+02   -1.5680214140693738E+02   -2.4784478447669585E+01
Br    2.0090081635153953E+02   -5.5500369494637965E+01   -5.8356902734450500E+01
Br    1.4584846996544013E+02   -4.9380089986676587E+01   -8.7624645564384295E+01
Br    1.3972365475108957E+01   -5.8227553202936218E+00    2.3229173532235531E+01
Br    5.2466454533623562E+01    1.1266994869961773E+02   -5.3258228946575791E+01
Br   -1.0515782451854948E+01    1.5241506011924568E+02   -1.9089409511399293E+01
Br   -1.3594607064364902E+02    2.1333446652710526E+02    1.1840628797617920E+02
Br   -9.5766420371906676E+01   -1.6902638473926612E+02   -1.7289841669049093E+01
Br   -7.0092678740752561E+01   -6.0795940848838065E+01   -1.4911668223109681E+01
Br   -2.5127296108043637E+02    3.0502287042373194E+01    7.3770203260887911E+01
Br   -2.4380195253610563E+02    5.2695161431331265E+01    8.6944306308329089E+01
Br   -2.6516977028850880E+02    5.1637375732355558E+01    2.2243727529186756E+01
Br   -1.9400050987063443E+02   -2.6942657027074389E+01    6.6223012053022458E+01
Br   -2.2352221730846614E+02    2.1547534320148455E+02    2.8822037463073194E+01
Br   -2.3297339307561410E+02    2.0313221408746864E+02    9.9206140831363214E+01
Br   -4.0499911687786897E+02    2.3457021668477148E+02    1.7551378126217315E+02
Br    2.8603417479535791E+00   -1.4786546613502034E+02   -8.3533044833369800E+01
Br    1.8810765107669840E+02   -1.7761912049926806E+02   -6.0222666871086894E+01
Br   -5.7637590805440709E+01   -9.8650680539364032E+01    8.8469564728349297E+01
Br    1.6605390329236311E+01    1.5114669831161298E+00   -8.4815912450977549E+01
Br   -1.8086731783623475E+02    3.7062168667905993E+01    4.7659656918618765E+01
Br   -6.6289543350898057E+01    3.9245960919675667E+01    3.7973807282078710E+01
Br   -1.5340305747340742E+02    2.3855010381455105E+02    7.2464632899100865E+00
Br    9.4460047721280791E+00    1.5308575144904859E+02    4.0456108932977664E+01
Br   -1.4385007784981619E+02    1.5424715131044891E+02    1.5483838436429292E+02
Br    1.6855024495948845E+02   -1.8210448455965633E+02   -9.4527135036174627E+01
Br    2.3476871349448612E+02   -1.7545637558917366E+02   -3.1806268892198410E+01
Br    1.1787215013020541E+02   -1.6192117183873225E+02    5.9652524626270784E+00
Br    9.7690465236428423E+01   -2.6615081632064967E+01   -6.4891931887067898E+01
Br    3.7205121743081342E+01   -3.9114455967598069E+01   -4.7491473123984683E+01
Br    1.2573772761056901E+01    3.4368797608555397E+01    1.4747354058263915E+02