 # Version information for this restart file 
 # current date 2020-12-23 15:00:39.766
 # current working dir /Users/bvanbeek/Downloads/MM_MD_workdir/md
 # Program compiled at                             Fri Apr 19 11:24:34 CEST 2019
 # Program compiled on                                             192.168.1.124
 # Program compiled for                           Darwin-IntelMacintosh-gfortran
 # Source code revision number                                         svn:18464
 &GLOBAL
   PRINT_LEVEL  LOW
   PROJECT_NAME cp2k
   RUN_TYPE  MD
 &END GLOBAL
 &MOTION
   &MD
     ENSEMBLE  NPT_F
     STEPS  10000
     TIMESTEP     2.4999999999999996E+00
     STEP_START_VAL  4500
     TIME_START_VAL     1.1250000000000349E+04
     ECONS_START_VAL    -5.5495911227455137E+00
     TEMPERATURE     3.0000000000000000E+02
     &BAROSTAT
       PRESSURE     1.0100000000000000E+00
       TIMECON     4.9999999999999994E+02
       &VELOCITY
             5.5842964068909905E-06   -5.6656686395798333E-07    6.4774281097213286E-07   -5.6656686395792182E-07 \
             2.2855205143172507E-06    8.6243285004795672E-07    6.4774281097214726E-07    8.6243285004793470E-07    3.3222137615784265E-06
       &END VELOCITY
       &MASS
             2.1920353963970435E+08    2.1920353963970435E+08    2.1920353963970435E+08    2.1920353963970435E+08 \
             2.1920353963970435E+08    2.1920353963970435E+08    2.1920353963970435E+08    2.1920353963970435E+08    2.1920353963970435E+08
       &END MASS
       &THERMOSTAT
         TYPE  CSVR
         &CSVR
           TIMECON     9.6755373060191392E+00
           &THERMOSTAT_ENERGY
                -2.3151133249031799E-02
           &END THERMOSTAT_ENERGY
           &RNG_INIT
Wiener process for Thermostat # 1        1 F T F   2.9005119790927864E-01        2660385712.0        3673963316.0        2708116344.0        1435587395.0        1369047185.0        3968034639.0             12345.0             12345.0             12345.0             12345.0             12345.0             12345.0             12345.0             12345.0             12345.0             12345.0             12345.0             12345.0
           &END RNG_INIT
         &END CSVR
       &END THERMOSTAT
     &END BAROSTAT
     &THERMOSTAT
       TYPE  CSVR
       &CSVR
         TIMECON     4.9999999999999994E+02
         &THERMOSTAT_ENERGY
              -2.0643900718666153E+00
         &END THERMOSTAT_ENERGY
         &RNG_INIT
Wiener process for Thermostat # 1        1 F T F   4.9503273461125996E-01        1206620607.0        2346319958.0        3908005236.0        2649821985.0        3673925048.0        2712076830.0             12345.0             12345.0             12345.0             12345.0             12345.0             12345.0             12345.0             12345.0             12345.0             12345.0             12345.0             12345.0
         &END RNG_INIT
       &END CSVR
       &PRINT
         &TEMPERATURE  ON
           FILENAME 
           &EACH
             MD  10
           &END EACH
         &END TEMPERATURE
       &END PRINT
     &END THERMOSTAT
     &AVERAGES  T
       &RESTART_AVERAGES
         ITIMES_START  1
         AVECPU     3.9165740666703829E-02
         AVEHUGONIOT     0.0000000000000000E+00
         AVETEMP_BARO     2.4686576155468467E+02
         AVEPOT    -4.8789958277838359E+00
         AVEKIN     6.6724820463939660E-01
         AVETEMP     2.6060614333194388E+02
         AVEKIN_QM     0.0000000000000000E+00
         AVETEMP_QM     0.0000000000000000E+00
         AVEVOL     3.2802418364636856E+05
         AVECELL_A     6.3078573531707505E+01
         AVECELL_B     8.5713024534014380E+01
         AVECELL_C     5.9288700324901910E+01
         AVEALPHA     8.8815278255588382E+01
         AVEBETA     9.1750261775914865E+01
         AVEGAMMA     8.9941908755839975E+01
         AVE_ECONS    -1.3757250036018587E+00
         AVE_PRESS     3.2114452538048366E+00
         AVE_PXX     2.1759834200779000E+00
       &END RESTART_AVERAGES
     &END AVERAGES
   &END MD
   &PRINT
     &TRAJECTORY  ON
       &EACH
         MD  10
       &END EACH
     &END TRAJECTORY
     &CELL  ON
       FILENAME 
       &EACH
         MD  10
       &END EACH
     &END CELL
     &FORCES  ON
       FILENAME 
       &EACH
         MD  10
       &END EACH
     &END FORCES
   &END PRINT
 &END MOTION
 &FORCE_EVAL
   METHOD  FIST
   STRESS_TENSOR  ANALYTICAL
   &MM
     &FORCEFIELD
       VDW_SCALE14     1.0000000000000000E+00
       EI_SCALE14     1.0000000000000000E+00
       SHIFT_CUTOFF  T
       DO_NONBONDED  T
       IGNORE_MISSING_CRITICAL_PARAMS  T
       &SPLINE
         R0_NB     1.0000000000000001E-01
       &END SPLINE
       &NONBONDED
         &LENNARD-JONES
           ATOMS Cs Cs
           EPSILON     2.2644852172126850E+01
           SIGMA     5.8500000000000005E+00
         &END LENNARD-JONES
         &LENNARD-JONES
           ATOMS Cs Pb
           EPSILON     8.6920055954630953E+01
           SIGMA     5.1000000000000005E+00
         &END LENNARD-JONES
         &LENNARD-JONES
           ATOMS Br Pb
           EPSILON     2.0528187276773045E+02
           SIGMA     2.9000000000000004E+00
         &END LENNARD-JONES
         &LENNARD-JONES
           ATOMS Br Cs
           EPSILON     5.3481070753900497E+01
           SIGMA     3.8500000000000005E+00
         &END LENNARD-JONES
         &LENNARD-JONES
           ATOMS Br Br
           EPSILON     1.2630795322675199E+02
           SIGMA     4.2599999999999998E+00
         &END LENNARD-JONES
         &LENNARD-JONES
           ATOMS Pb Pb
           EPSILON     3.3363415533600221E+02
           SIGMA     5.9800000000000004E+00
         &END LENNARD-JONES
       &END NONBONDED
       &CHARGE
         ATOM Cs
         CHARGE     2.0000000000000001E-01
       &END CHARGE
       &CHARGE
         ATOM Pb
         CHARGE     4.0000000000000002E-01
       &END CHARGE
       &CHARGE
         ATOM Br
         CHARGE    -2.0000000000000001E-01
       &END CHARGE
     &END FORCEFIELD
     &POISSON
       PERIODIC  XYZ
       &EWALD
         EWALD_TYPE  SPME
         GMAX  22
         O_SPLINE  4
       &END EWALD
     &END POISSON
     &PRINT
       &FF_INFO  LOW
         SPLINE_INFO  F
         SPLINE_DATA  F
       &END FF_INFO
     &END PRINT
   &END MM
   &SUBSYS
     &CELL
       A     4.6799719673222590E+01   -3.4654340408434696E+00   -4.8892360321542361E+00
       B    -4.4740736253025011E+00    5.7025984069549672E+01    4.5198130881463960E+00
       C    -4.5987236602756791E+00    3.2325214553658386E+00    3.6231258098031049E+01
       PERIODIC  XYZ
       MULTIPLE_UNIT_CELL  1 1 1
     &END CELL
     &COORD
Br   -2.0254032550993525E+01    2.4607834613306697E+01    4.5266293968314049E+00
Br   -1.7775966229911774E+01    2.3930820704420196E+01    1.6626190013110346E+01
Br   -1.4740512470545990E+00   -1.5645875440019633E+01   -1.2923138180083109E+01
Br   -6.6443776454392314E+00   -1.2397775547492511E+01   -3.9753018873206436E+00
Br    6.5783199592786383E+00   -1.2013103008753879E+01    8.7867582164934905E+00
Br    2.8635981682172136E+00    1.4585583136509472E+00   -1.6617978064347053E+01
Br   -4.0318580350065973E+00    4.2045113941346957E+00   -3.1364122353434976E+00
Br    5.2209174393318447E-01    2.8475405012870829E+00    1.3574972754226511E+01
Br   -2.2498709727737465E+00    2.1406511442519680E+01   -6.0967343756493602E+00
Br   -1.4646477645222911E+00    1.8229537840830680E+01    7.3447356120481979E+00
Br   -2.3580035831873083E+00    2.2328018234157824E+01    1.1872994576430607E+01
Br    1.5132877455929783E+01   -1.6146683514493919E+01   -1.5613471994556068E+01
Br    1.6259571914785589E+01   -9.5507385305681129E+00   -2.7216394132598909E+00
Br    1.2010640222042728E+01   -1.6882432127173246E+01    8.2838801980993999E+00
Br    1.4480201279874798E+01   -1.1119361674263613E+00   -1.2119329998955299E+01
Br    1.4745902829334067E+01    2.0401597000121927E+00    9.6868987958850805E-01
Br    9.4787973801715957E+00    9.5120550717570094E+00    4.6951090425332653E+00
Br    1.5430725320395073E+01    2.4948041456142125E+01   -8.4744948397772522E+00
Br    2.1820641600504889E+01    2.5880342126610234E+01   -3.4341399777640218E+00
Br    1.1088363359246305E+01    1.6471674283684315E+01    6.0373776446333469E+00
Pb   -2.4482581511509093E+01   -1.6244567523157940E+01   -1.6175068465825024E+01
Pb   -1.8830514208472444E+01   -1.6228985372283081E+01   -7.1620912242867951E-01
Pb   -2.4564272572479364E+01   -1.4684290834081514E+01    1.0515051959161354E+01
Pb   -1.1675587836336856E+01   -8.2488700257735825E+00   -2.1384251661016968E+01
Pb   -2.4518692495931230E+01    3.5718347419074759E+00   -4.7856540705386470E+00
Pb   -2.0652365935934014E+01   -2.8870159780552380E+00    4.8932919759108886E+00
Pb   -2.8715281810666863E+01    1.3749527576354199E+01   -1.3456582198421241E+01
Pb   -2.2003392213786157E+01    2.4949470708425405E+01   -1.3961702511262686E+00
Pb   -1.8749486533138700E+01    2.0398677107017036E+01    9.2825357702307354E+00
Pb   -2.0980982767198757E+00   -1.9979947325362591E+01   -2.0037812718805164E+01
Pb   -4.9075519037718127E+00   -1.5558164929287788E+01   -7.0248488164855862E+00
Pb   -1.0223507161479676E+01   -1.8247658852423164E+01    7.9974121752812106E+00
Pb   -2.0009038280021394E+00   -1.7827931698266712E+00   -2.1039840382604691E+01
Pb   -8.0692771281936277E+00    1.8825861052810082E+00   -7.4564877407777148E+00
Pb   -1.3876398020643453E+01    3.9280693209883664E+00    4.6103911374126083E+00
Pb   -7.7523600334188929E+00    1.5846183107610443E+01   -1.1426874115110119E+01
Pb   -8.8011011000276973E+00    2.4960247189231133E+01   -8.5393914081109712E-01
Pb   -1.3731801077680705E+01    2.2997854763892093E+01    1.3690940804344466E+01
Pb    1.2586177704296327E+01   -2.4549038481487933E+01   -2.3002971021366534E+01
Pb    9.5624004092485642E+00   -1.8998693516595583E+01   -1.1066526031967921E+01
Pb    1.4895739286221861E+01   -2.0230740803680781E+01    2.2453948362964686E+00
Pb    9.4930890030466255E+00   -3.3228141017657808E+00   -1.1745467119157073E+01
Pb    1.2392242289616780E+01   -1.0864369540808694E+00   -5.6580973723338692E+00
Pb    2.5198379174851770E+00    1.4591086684330626E-01    2.3847056218734783E+00
Pb    9.5326251395298076E+00    2.1074305229511406E+01   -1.8592481737632625E+01
Pb    6.1235278838762461E+00    2.0245621947846047E+01   -1.1776145136640359E+01
Pb    5.5599195321063748E+00    1.5130145347215713E+01    1.8202031753123407E+00
Pb   -2.0367304888051699E+01   -1.9507597817439503E+01   -1.1294718290657523E+01
Pb   -1.4047318347923698E+01   -2.0222880376699202E+01    1.4689208738898587E+00
Pb   -1.2071588267659912E+01   -1.4404658957385925E+01    1.3552870109445584E+01
Pb   -1.6422439867572134E+01   -3.0319669388145676E+00   -1.2932667083208599E+01
Pb   -1.3855634387147637E+01    9.1458416406560761E-01   -1.3661624667619232E+00
Pb   -9.7740209425697948E+00   -4.8184097569731312E+00    1.2131692696259174E+01
Pb   -1.2123086431817107E+01    2.1159022973403978E+01   -9.8174484544184377E+00
Pb   -1.8324061874413108E+01    2.3016272537837889E+01    3.0022005729870456E+00
Pb   -2.0385476616107834E+01    2.1361360842770139E+01    1.5789925613457106E+01
Pb    6.5406452389156888E-01   -1.7935844525592067E+01   -1.0957520076744053E+01
Pb    8.9409050080360153E+00   -1.8109269686746039E+01    6.6884250278322688E-01
Pb    4.0732616777056663E+00   -1.7464956412843417E+01    6.7937605755236943E+00
Pb    5.9808332943533571E-01    1.6417846641224927E+00   -1.4061006051421693E+01
Pb   -1.4427903976915644E+00    4.3583573932334394E+00   -2.0590161224003332E+00
Pb   -1.7489741769836578E+00    5.8026263948492307E-01    1.1362796448810057E+01
Pb   -2.7654328086003650E+00    1.8812914026576113E+01   -4.3175712171379610E+00
Pb    3.2665566686285987E+00    2.2040572517253111E+01   -3.5043037345443084E-01
Pb   -3.0519646813763468E+00    1.9106174189900518E+01    9.6809117796338438E+00
Pb    1.4636520144715416E+01   -1.9474153081962839E+01   -1.5280964308819939E+01
Pb    2.1832211485461517E+01   -1.9333696469404476E+01   -5.3028554795289806E-01
Pb    1.5995471728008294E+01   -1.6227780508357633E+01    7.6103551435681842E+00
Pb    1.6275766988349950E+01   -3.2807551049146104E+00   -1.0133747433658494E+01
Pb    1.9726947628300326E+01   -3.0855470227222401E+00   -3.8518920309207316E+00
Pb    5.6061966663953831E+00    2.4123821638404936E+00    9.5700062433765396E+00
Pb    1.4878486453261072E+01    2.0501415466024653E+01   -1.0283438129961223E+01
Pb    2.0328941894908883E+01    1.6338572454555635E+01   -4.8021229105298824E+00
Pb    7.5752005355689427E+00    1.9747785396179001E+01    8.4753080353681600E+00
Pb   -2.0844757536939436E+01   -3.0425626631611788E+01   -1.7510227881471096E+01
Pb   -2.2231918778165429E+01   -2.5036763271381695E+01   -1.8595521515416831E+00
Pb   -1.9373966052519982E+01   -3.1007363958407296E+01    7.1479134300472706E+00
Pb   -1.9942353708388147E+01   -1.3412630851756861E+01   -2.0731790972895773E+01
Pb   -2.0988827837803672E+01   -4.7172077080413573E+00   -5.4033116582811065E+00
Pb   -2.0358291266366663E+01   -1.0454945421521122E+01    4.4190442629052855E+00
Pb   -2.8808146002351666E+01    6.9289172656062288E+00   -1.2939616050327487E+01
Pb   -2.3879727676906896E+01    8.4424731362212473E+00    3.0585593194379657E+00
Pb   -2.2641943753176363E+01    1.2964310502859623E+01    8.2161431739459250E+00
Pb   -4.1523504804405551E+00   -3.0784483284337927E+01   -1.7940696297546030E+01
Pb   -6.8710299505743393E+00   -2.4545864838588571E+01   -7.3806484499423828E+00
Pb   -8.7121572514596988E+00   -2.3332712792469497E+01    4.0966465753752290E+00
Pb   -8.6285214498822249E+00   -1.4509392469049722E+01   -1.7185319099714274E+01
Pb   -9.3677430526196375E+00   -1.1579723658504513E+01   -2.8657415890120563E+00
Pb   -8.2648208643257846E+00   -7.7171273267005152E+00    2.1195070117570194E+00
Pb   -3.2345684713899736E+00    9.8858671446117796E+00   -1.5318067437907011E+01
Pb   -2.7919808988981698E+00    5.6844696857026848E+00   -8.4121020367374690E+00
Pb   -1.0731776586763674E+01    1.0863571194032351E+01    1.2792051019998219E+01
Pb    9.7750911347578384E+00   -3.2420008979485388E+01   -2.0427484943992400E+01
Pb    2.9068974832754830E+00   -2.6582683221465437E+01   -8.8516962316874483E+00
Pb    1.0535570773946661E+01   -2.4485036824686990E+01   -2.4261786463006343E-01
Pb    9.8638029132642213E+00   -9.2047576392691433E+00   -2.1372414778886704E+01
Pb    5.1480622524231663E+00   -4.5042787196873277E+00   -6.0070475650312796E+00
Pb    9.8559213146919866E+00   -9.2631375841977199E+00    2.7989702125336113E+00
Pb    1.2907961692764099E+01    8.6224905186836018E+00   -1.3827934860001523E+01
Pb    1.1522987347863616E+01    5.2309342944221511E+00   -3.6713350632764659E+00
Pb    8.9465922331034236E+00    6.6494104373101406E+00    5.0789948117222119E+00
Pb   -1.5542660590277688E+01   -2.4599753316600225E+01   -1.0962464607445733E+01
Pb   -8.8957364982700273E+00   -2.6647898293919653E+01   -1.7773442981385821E+00
Pb   -1.4628368813928031E+01   -3.0227456659837561E+01    1.4726694169822403E+01
Pb   -1.5899156163631135E+01   -1.1139062332469253E+01   -1.5421157170619033E+01
Pb   -1.5561708081648451E+01   -8.5540817057391081E+00   -1.2627464850802523E+00
Pb   -1.7744772792473601E+01   -1.0926427675566099E+01    1.2661883088567887E+01
Pb   -9.6246285310952917E+00    7.3384648610906469E+00   -1.0924736999983276E+01
Pb   -1.5513862491824424E+01    8.8592173416048805E+00    7.4154177018460476E-01
Pb   -1.3326734946754371E+01    9.4516776985394273E+00    1.8941417354597078E+01
Pb   -1.6718330638253833E+00   -2.3924599010548501E+01   -1.2914886968589672E+01
Pb   -1.7247408396945825E+00   -2.5926564207405633E+01   -3.2011432321009736E+00
Pb    2.6537848576515022E+00   -3.1808791047445268E+01    1.0663724194987070E+01
Pb   -1.9803603983999709E+00   -1.3385553082807302E+01   -1.8612823755878651E+01
Pb   -1.5496006567453680E+00   -4.6137646959152292E+00   -5.6976534875575824E-01
Pb    3.5756545034194405E+00   -1.1343376586904522E+01    6.6890908105133899E+00
Pb    1.7460111390840225E+00    1.2835910047410906E+01   -1.2411331648851167E+01
Pb    4.9534587750130177E+00    6.9718439317770740E+00   -4.8564240111291297E-02
Pb   -4.0277852976425264E+00    1.3513491411704775E+01    1.1564932791818515E+01
Pb    1.8113203541788952E+01   -2.9451055675790766E+01   -1.4247036522626898E+01
Pb    1.2600542487440881E+01   -3.2020089591129768E+01   -1.5969547901364883E-01
Pb    1.2803766603241954E+01   -3.0069069917644605E+01    7.8238059159214686E+00
Pb    2.0219181657285500E+01   -8.5075302740359717E+00   -1.3298485764461377E+01
Pb    1.5375826788982385E+01   -6.4620534032020851E+00    3.1811217557778403E-02
Pb    1.1425762710228957E+01   -5.3010708247993019E+00    1.0538148775487350E+01
Pb    1.5522106838966465E+01    3.4542819360416241E+00   -1.1335796457247081E+01
Pb    1.7031980943288641E+01    4.2831973614030483E+00    4.7416898152490691E-03
Pb    8.6332795484191340E+00    1.3803961904275932E+01    1.3545738281104624E+01
Cs   -1.3741204983806826E+01   -3.0064629446060064E+01   -1.6278305925761401E+01
Cs   -1.1995941345173033E+01   -1.7684892823818775E+01   -5.3417353987715925E+00
Cs   -1.3682302278444610E+01   -1.8482466957675342E+01    1.9218347739104413E+01
Cs   -5.6211509729977838E+00   -5.6249738538108991E+00   -1.4089810490944473E+01
Cs   -1.0006600622017734E+01   -7.7359247460116185E+00   -8.4031666471243049E+00
Cs   -1.4820767131471509E+01   -5.3253079221134794E+00    6.6907553028497073E+00
Cs   -1.5439510217690886E+01    9.3596358382112239E+00   -1.3334654887046915E+01
Cs   -1.2222633493168237E+01    1.5761423102394115E+01   -7.0461435674990378E+00
Cs   -1.7368665965744004E+01    1.3753179312253909E+01    5.4155121879150441E+00
Cs    6.7121548177857866E+00   -2.8252884975912956E+01   -2.2160482319662176E+01
Cs   -2.1013303144281932E+00   -2.0344878187234695E+01   -5.7739925529581848E+00
Cs    4.6228697978095745E+00   -2.2549737902734584E+01   -4.6109909499466395E-01
Cs    3.6168751560969574E+00   -4.4685699759429927E+00   -1.9990723680245434E+01
Cs   -2.1475258258736782E+00    7.3247749550900354E-01   -5.3568812451797188E+00
Cs   -4.4070596928187857E+00    1.7515016769293001E+00    5.4525562426090834E+00
Cs   -2.0604045648453626E+00    1.4427921702181012E+01   -1.8309484375080224E+01
Cs    3.4642698185730159E+00    1.5636252154378885E+01   -6.5217524488536815E+00
Cs   -2.2215303418740895E+00    1.4538410361129696E+01    6.4067231173764236E+00
Cs    1.9426950028506003E+01   -2.9208418329689195E+01   -2.2921725808440289E+01
Cs    9.2664518018195956E+00   -2.6908847460585836E+01   -9.6228543504536521E+00
Cs    1.9174040450564931E+01   -3.5886460846082215E+01    4.1783031885289921E+00
Cs    1.4870660202031113E+01   -3.1632412252141613E+00   -1.5456559672303918E+01
Cs    1.7175267532695116E+01   -7.1227182280469066E+00   -7.0433539803737615E+00
Cs    1.6308101648950895E+01   -3.8728115086082560E+00    5.0405569215226054E+00
Cs    1.3988832981536609E+01    1.2516640793790897E+01   -6.4820556141963355E+00
Cs    1.7232963268778789E+01    1.0315568459947796E+01   -5.2325829446615224E-01
Cs    1.3147024890482831E+01    1.2822841659383219E+01    9.2764759220184523E+00
Cs   -4.5853705362704833E+00   -1.0486737557028253E+01   -1.3505170356881974E+01
Cs    3.0466975813506516E+00   -1.1974441460716841E+01   -4.2865222175357722E+00
Cs   -5.7847297783355014E+00   -1.5899419429032825E+01    1.1047322476080653E+01
Cs   -1.0051675182779260E+01   -5.4032602144652009E-01   -1.4695560635234903E+01
Cs   -8.7232300332595862E+00    1.3803383280086686E+01    8.1329792073197726E+00
Cs   -9.3371875142270362E+00    1.4325431587355020E+00    9.0898000919768780E+00
Cs   -5.7847271046112310E+00    2.5458042672019765E+01   -8.0192246266379819E+00
Cs   -5.5823409589796764E+00    2.4954747408356919E+01    9.7270726674319228E+00
Cs   -1.0107306536264678E+01    2.8009562475136978E+01    1.5311058257745964E+01
Cs    1.4951691077906167E+01   -1.1020555516118607E+01   -1.4810014842727778E+01
Cs    1.1083966155389470E+01   -9.1923387161597603E+00   -2.1782981247496114E+00
Cs    1.1117497648856398E+01   -1.3084587710799539E+01    8.9605365902993004E+00
Cs    6.9055473832067120E+00    1.0285875681657474E+01   -1.0765641803228048E+01
Cs    1.0572723322854696E+01   -3.0884348133232491E+00   -8.4980480299504579E-01
Cs    2.7230840250505364E+00    1.1713402505254995E+01    1.3879218901533251E+01
Cs    2.7755621516493121E+00    2.6055153926036624E+01   -8.9505359556903183E+00
Cs    7.4822451102634497E+00    2.2963567763373835E+01   -3.0039731481439076E+00
Cs    1.8894180244329450E+00    2.9288632067078606E+01    9.4940885143769052E+00
Cs    2.2959930628290014E+01   -1.3421614047288363E+01   -9.8477177910851399E+00
Cs    3.2137327353742577E+01   -1.4358505552393208E+01   -1.3024073674358206E+01
Cs    1.7525936136193430E+01   -9.0095530033740587E+00    8.2278901891644534E+00
Cs    2.4564094437115372E+01   -4.3780069891410527E+00   -1.5596488169519679E+01
Cs    2.6010331200982517E+01   -4.1517897870729031E-01   -4.6656911638971579E+00
Cs    2.5450714269311707E+01    1.5707789800809795E+00    1.0405639635709734E+01
Cs    2.2994354908300831E+01    1.7733205999562536E+01   -1.1812225980027204E+01
Cs    2.6917313052968105E+01    2.5980796545188213E+01   -1.6507290003981465E+00
Cs    2.0465135041282014E+01    2.5268353010743471E+01    1.2628674436700123E+01
Cs   -1.0525676738676822E+01   -1.2074312406313910E+01   -1.2438785355573570E+01
Cs   -1.1776493501679552E+01   -1.2007250800946929E+01    3.8159883314377621E+00
Cs   -1.8425083812226511E+01   -1.3052197734419773E+01    1.8710105787207748E+01
Cs   -1.4281013208874983E+01    5.3538148754594834E+00   -7.0072536158351593E+00
Cs   -1.8951030879431404E+01    3.1576535158148480E+00    8.8797967789538426E+00
Cs   -1.2382506796903620E+01    1.2035226358953084E+00    1.5568807639739633E+01
Cs   -1.3416061195248890E+01    2.5727778755827256E+01   -3.6917184563404586E+00
Cs   -1.3239617237047275E+01    2.6656177938858146E+01    8.9483348686513473E+00
Cs   -2.8414907757978412E+01    1.8184854205814197E+01    2.1088978861608197E+01
Cs    1.4563768782135684E+00   -8.6089695240061346E+00   -1.4549862597110851E+01
Cs   -1.5236573984576083E+00   -1.2494737452425202E+01    3.8103501843784264E+00
Cs    1.4528828661253095E+00   -1.1057212570662275E+01    1.3986877472786476E+01
Cs    4.5407366250961445E+00    6.4824552779648243E+00   -6.6654337315881316E+00
Cs   -6.5946310122560037E-01    5.5689340690170903E+00    5.1621716402672302E+00
Cs   -2.3213510188616593E+00    7.3632459750199359E+00    1.6217491846455246E+01
Cs   -2.3968092406373382E+00    2.4722191490240590E+01   -1.5265393251527670E+00
Cs    2.0611980353880544E+00    1.9185684296544132E+01    6.5079421017031773E+00
Cs   -3.2244905969477293E+00    2.4280923308022452E+01    2.3390022995800049E+01
Cs    1.5281617654087089E+01   -1.9748740651213559E+01   -8.8899465697142155E+00
Cs    1.8324646713048264E+01   -1.3401940209858619E+01    2.1142310216348483E+00
Cs    1.8857126781199135E+01   -9.5145759072909843E+00    1.6978040988592337E+01
Cs    1.7252174236222690E+01    2.0883849389460436E+00   -5.4976131179547298E+00
Cs    1.3826376493657403E+01    5.6483799680545994E+00    8.3295661301665724E+00
Cs    7.1771307136875171E+00    6.2886839538068706E+00    1.4801834734366262E+01
Cs    1.8855728802439334E+01    2.2574918242019272E+01   -5.3112512595792962E+00
Cs    1.1043409156679816E+01    1.8527144393462876E+01    1.0961159204809734E+00
Cs    1.1501880993587198E+01    2.3886930217429274E+01    2.0653127537066922E+01
Cs   -2.1579376255888874E+01   -2.3415365469904575E+01   -7.5511085185192686E+00
Cs   -1.7399137019745609E+01   -2.3632111085705478E+01    9.9362864719664472E+00
Cs   -2.6596633893758391E+01   -1.8649623921993861E+01    1.5927649743249864E+01
Cs   -2.4179106204433964E+01   -3.8294848361306602E+00   -1.5462888985135672E+01
Cs   -2.4863826310381356E+01   -5.5529332637994360E+00    1.4951579150647030E+00
Cs   -2.3740026444406176E+01   -2.7862449267554994E+00    1.2140076026415560E+01
Cs   -1.7863014106094202E+01    1.9758477558996855E+01   -2.9519246018028964E+00
Cs   -1.3408315830378132E+01    1.7776120262092547E+01    5.1014169227116524E-01
Cs   -1.5793470436205522E+01    1.4319472831201121E+01    1.4626812649410422E+01
Cs   -6.8169051093500084E+00   -1.8270186374580629E+01   -1.2337461476662709E+01
Cs   -7.8890618034160296E+00   -1.9507158053743115E+01   -1.2651887976008205E+00
Cs   -2.5025074025045919E+00   -2.0134747977167827E+01    8.9612523810566991E+00
Cs   -3.5035036885395812E+00   -4.3791928187553486E+00   -8.2997092853416241E+00
Cs   -9.5879104439208103E+00   -5.9064560191536568E+00   -2.5227689079951277E+00
Cs   -7.3783000042848474E+00   -1.2056326312400307E+01    7.3876055168927319E+00
Cs   -1.2135746642494725E+00    1.1399301650548594E+01   -8.0672436014585553E+00
Cs   -1.8838271371865885E+00    1.1023141703358394E+01   -9.5218732215295165E-01
Cs   -1.1254762068469679E+01    1.8046556850046525E+01    1.3975866490976726E+01
Cs    2.4470283909936201E+00   -2.8459116815259478E+01   -1.7295752876308942E+01
Cs    1.0040478572118055E+01   -1.9781098340914713E+01   -5.2985146577322917E+00
Cs    1.1221433586555966E+01   -1.9698674235626207E+01    6.1167767993552511E+00
Cs    7.5981097747513076E+00   -7.0165967980092310E+00   -1.6545735345603628E+01
Cs    3.9090494794455362E+00   -4.8107779998700737E+00    2.7829583538680454E+00
Cs    2.7483167457164228E+00   -4.1436202643866391E+00    8.8690442772333924E+00
Cs    8.3206485807162114E+00    1.2041680753542794E+01   -1.6156326954229225E+01
Cs    8.5350810398432468E+00    1.1429826087309806E+01   -2.9308018891627610E+00
Cs    1.2785136980669809E+00    2.0073561678471894E+01    1.5742146422132759E+01
Br   -1.9949861303587987E+01   -1.8759974367374088E+01   -1.5092167548006987E+01
Br   -2.3319599042276781E+01   -1.7691611340393106E+01    7.2902594503641787E+00
Br   -2.2284966253838512E+01   -1.5190608767434471E+01    1.3161792442711013E+01
Br   -1.7224546352018539E+01   -1.9025532706412449E+00   -1.0445081181823612E+01
Br   -1.7043780357363634E+01    4.7815504561199229E-01   -7.6195214195781324E-01
Br   -1.8805307195572240E+01   -4.8251736397777583E+00    6.7834870799751386E+00
Br   -1.3508007740943620E+01    2.1964704910326187E+01   -1.3026646078696883E+01
Br   -1.6838852625481582E+01    2.0863790053773982E+01    1.2965126930382138E+00
Br   -2.2763630458056433E+01    2.1515415174936418E+01    1.7407407685232538E+01
Br   -8.1344670274416409E+00   -1.7545864624494698E+01   -1.7514065935867158E+01
Br   -3.9569784755122122E+00   -1.6540722216211542E+01   -4.5171109439472188E+00
Br   -5.0293105511163052E+00   -1.3854648250825607E+01    4.9318151553971115E+00
Br    3.9370231253443841E+00   -5.8474334730754745E+00   -1.6427665238239516E+01
Br    2.0331725471292336E-01    3.2499960296237753E+00   -4.1839119573111887E+00
Br   -4.5993327578821877E+00    2.4854115599619284E-01    1.2703384405815381E+01
Br   -5.7294651960828258E+00    1.8462202078554810E+01   -1.1799104530504929E+01
Br    1.9586664076745637E+00    2.0618457990737852E+01    2.1992107418772959E+00
Br   -1.1745119190099919E+01    2.1138755811838983E+01    1.1399942694351546E+01
Br    1.0645264238098873E+01   -1.0773028531468283E+01   -1.4715740552682913E+01
Br    1.2983336865461803E+01   -2.2928857875259229E+01   -1.3296480290826793E+00
Br    1.4736527455151357E+01   -1.6262990676756402E+01    3.8607692852669695E+00
Br    1.1438622423909885E+01   -4.1807952203412082E+00   -8.9112580632397655E+00
Br    1.4312868128030145E+01   -3.8971302496285336E+00   -4.5658067136521900E+00
Br    9.1201723077511012E+00    6.9778332708735231E+00    8.0371932734052169E+00
Br    1.6450134135267643E+01    1.8559504735264799E+01   -1.1762016835447094E+01
Br    3.0006913402360915E+00    1.9952573061198805E+01   -9.6982745130300483E+00
Br   -1.1655423628672696E+00    2.5318803778844043E+01    8.5444392598700283E+00
Br   -2.0524828659670053E+01   -2.4188194065686186E+01   -1.2172875570706077E+01
Br   -1.1592995865347605E+01   -1.8618590107593693E+01    5.2114309730091151E+00
Br   -2.5069383814846990E+01   -7.0903676912592726E+00    1.4120369297306315E+01
Br   -2.4196614974614363E+01    4.4460936339957549E+00   -7.9359280344960821E+00
Br   -2.8909310399388936E+01   -1.5124163813785843E+00    2.3025697046157756E+00
Br   -1.5106520494096630E+01   -7.9259688994343129E+00    1.5172196704694951E+01
Br   -2.0187290803002664E+01    2.3256203513988826E+01   -3.2680283309145617E+00
Br   -2.1677933611676309E+01    1.9265277213361529E+01    7.6730511651298157E+00
Br   -3.4625694300313448E+01    1.6524953247085286E+01    1.9847082867370780E+01
Br   -4.8284577931431255E-01   -1.6209308677778992E+01   -7.9878452839883511E+00
Br    6.0173655542215565E+00   -1.8278346806720837E+01    1.7883726038042660E+00
Br   -7.5623836143892298E+00   -2.0391389840640436E+01    1.4003165350131978E+01
Br    3.6724320601414742E-02    6.9365115146200074E-01   -1.0903197565987350E+01
Br   -1.4011879576363524E+01    8.5938401441267009E-01    1.9851702740690926E+00
Br   -5.2418653613762016E+00    7.1556844879273351E-01    1.7785528117015414E+01
Br   -9.9612582725956820E+00    2.7587395846054012E+01   -2.0995561688014770E+00
Br    6.1856924501012207E+00    2.0427702111950616E+01   -8.0984283953975500E-01
Br   -1.0079618907743917E+01    1.5420441575628407E+01    2.2578103255963192E+01
Br    1.1108428937847229E+01   -2.0415340412160596E+01   -1.3813533529222440E+01
Br    1.8738379638334457E+01   -2.0093217774934285E+01    6.6577294192825076E-01
Br    8.1002825315301568E+00   -2.3721711203495662E+01    1.1045247765184261E+01
Br    1.4860227846951249E+01   -1.4128778823477658E-01   -7.8957636850189301E+00
Br    7.6834415250983765E+00   -3.1183036044152157E+00    2.9359794860594852E+00
Br    6.5664946728726301E+00   -1.9257420493813029E+00    2.2376182452324770E+01