 # Version information for this restart file 
 # current date 2020-12-23 15:01:12.108
 # current working dir /Users/bvanbeek/Downloads/MM_MD_workdir/md
 # Program compiled at                             Fri Apr 19 11:24:34 CEST 2019
 # Program compiled on                                             192.168.1.124
 # Program compiled for                           Darwin-IntelMacintosh-gfortran
 # Source code revision number                                         svn:18464
 &GLOBAL
   PRINT_LEVEL  LOW
   PROJECT_NAME cp2k
   RUN_TYPE  MD
 &END GLOBAL
 &MOTION
   &MD
     ENSEMBLE  NPT_F
     STEPS  10000
     TIMESTEP     2.4999999999999996E+00
     STEP_START_VAL  6000
     TIME_START_VAL     1.4999999999999609E+04
     ECONS_START_VAL    -5.5495911227455137E+00
     TEMPERATURE     3.0000000000000000E+02
     &BAROSTAT
       PRESSURE     1.0100000000000000E+00
       TIMECON     4.9999999999999994E+02
       &VELOCITY
             1.9462190002142394E-05    4.4350486779983939E-07   -2.4744299806722472E-06    4.4350486779984394E-07 \
             1.7560618927391924E-05   -1.9188502708307240E-07   -2.4744299806722450E-06   -1.9188502708307463E-07    1.7619462167373845E-05
       &END VELOCITY
       &MASS
             2.1920353963970435E+08    2.1920353963970435E+08    2.1920353963970435E+08    2.1920353963970435E+08 \
             2.1920353963970435E+08    2.1920353963970435E+08    2.1920353963970435E+08    2.1920353963970435E+08    2.1920353963970435E+08
       &END MASS
       &THERMOSTAT
         TYPE  CSVR
         &CSVR
           TIMECON     9.6755373060191392E+00
           &THERMOSTAT_ENERGY
                 2.2581765704987017E-01
           &END THERMOSTAT_ENERGY
           &RNG_INIT
Wiener process for Thermostat # 1        1 F T F  -5.1655428113505275E-01        2429933765.0        2862871464.0         699325245.0        1190748936.0        2026598327.0        2405962007.0             12345.0             12345.0             12345.0             12345.0             12345.0             12345.0             12345.0             12345.0             12345.0             12345.0             12345.0             12345.0
           &END RNG_INIT
         &END CSVR
       &END THERMOSTAT
     &END BAROSTAT
     &THERMOSTAT
       TYPE  CSVR
       &CSVR
         TIMECON     4.9999999999999994E+02
         &THERMOSTAT_ENERGY
              -2.8154976675174748E+00
         &END THERMOSTAT_ENERGY
         &RNG_INIT
Wiener process for Thermostat # 1        1 F T F  -2.3340300197200103E+00        2259102261.0        3211246806.0        3936385297.0        3432808118.0        1580857628.0        1143443640.0             12345.0             12345.0             12345.0             12345.0             12345.0             12345.0             12345.0             12345.0             12345.0             12345.0             12345.0             12345.0
         &END RNG_INIT
       &END CSVR
       &PRINT
         &TEMPERATURE  ON
           FILENAME 
           &EACH
             MD  10
           &END EACH
         &END TEMPERATURE
       &END PRINT
     &END THERMOSTAT
     &AVERAGES  T
       &RESTART_AVERAGES
         ITIMES_START  1
         AVECPU     3.4762843000081485E-02
         AVEHUGONIOT     0.0000000000000000E+00
         AVETEMP_BARO     7.8251618349225294E+02
         AVEPOT    -4.6434422144060310E+00
         AVEKIN     6.6717694212484291E-01
         AVETEMP     2.6057831043714862E+02
         AVEKIN_QM     0.0000000000000000E+00
         AVETEMP_QM     0.0000000000000000E+00
         AVEVOL     1.2233828493848001E+06
         AVECELL_A     8.9767115267677582E+01
         AVECELL_B     1.1177775013975730E+02
         AVECELL_C     6.9996741918764002E+01
         AVEALPHA     8.3869879920704065E+01
         AVEBETA     9.6833684551862390E+01
         AVEGAMMA     9.4925752146677752E+01
         AVE_ECONS    -1.4098304990278321E+00
         AVE_PRESS     4.0645905455920266E+00
         AVE_PXX     3.4178483631782868E+00
       &END RESTART_AVERAGES
     &END AVERAGES
   &END MD
   &PRINT
     &TRAJECTORY  ON
       &EACH
         MD  10
       &END EACH
     &END TRAJECTORY
     &CELL  ON
       FILENAME 
       &EACH
         MD  10
       &END EACH
     &END CELL
     &FORCES  ON
       FILENAME 
       &EACH
         MD  10
       &END EACH
     &END FORCES
   &END PRINT
 &END MOTION
 &FORCE_EVAL
   METHOD  FIST
   STRESS_TENSOR  ANALYTICAL
   &MM
     &FORCEFIELD
       VDW_SCALE14     1.0000000000000000E+00
       EI_SCALE14     1.0000000000000000E+00
       SHIFT_CUTOFF  T
       DO_NONBONDED  T
       IGNORE_MISSING_CRITICAL_PARAMS  T
       &SPLINE
         R0_NB     1.0000000000000001E-01
       &END SPLINE
       &NONBONDED
         &LENNARD-JONES
           ATOMS Cs Cs
           EPSILON     2.2644852172126850E+01
           SIGMA     5.8500000000000005E+00
         &END LENNARD-JONES
         &LENNARD-JONES
           ATOMS Cs Pb
           EPSILON     8.6920055954630953E+01
           SIGMA     5.1000000000000005E+00
         &END LENNARD-JONES
         &LENNARD-JONES
           ATOMS Br Pb
           EPSILON     2.0528187276773045E+02
           SIGMA     2.9000000000000004E+00
         &END LENNARD-JONES
         &LENNARD-JONES
           ATOMS Br Cs
           EPSILON     5.3481070753900497E+01
           SIGMA     3.8500000000000005E+00
         &END LENNARD-JONES
         &LENNARD-JONES
           ATOMS Br Br
           EPSILON     1.2630795322675199E+02
           SIGMA     4.2599999999999998E+00
         &END LENNARD-JONES
         &LENNARD-JONES
           ATOMS Pb Pb
           EPSILON     3.3363415533600221E+02
           SIGMA     5.9800000000000004E+00
         &END LENNARD-JONES
       &END NONBONDED
       &CHARGE
         ATOM Cs
         CHARGE     2.0000000000000001E-01
       &END CHARGE
       &CHARGE
         ATOM Pb
         CHARGE     4.0000000000000002E-01
       &END CHARGE
       &CHARGE
         ATOM Br
         CHARGE    -2.0000000000000001E-01
       &END CHARGE
     &END FORCEFIELD
     &POISSON
       PERIODIC  XYZ
       &EWALD
         EWALD_TYPE  SPME
         GMAX  22
         O_SPLINE  4
       &END EWALD
     &END POISSON
     &PRINT
       &FF_INFO  LOW
         SPLINE_INFO  F
         SPLINE_DATA  F
       &END FF_INFO
     &END PRINT
   &END MM
   &SUBSYS
     &CELL
       A     2.0706417037924672E+02   -6.1300843298779974E+01   -5.3708181466654153E+01
       B    -7.4396287924691350E+01    2.3068565597883898E+02    4.6170805507590231E+01
       C    -4.6614537726962290E+01    3.5800114456091691E+01    1.0629530164469519E+02
       PERIODIC  XYZ
       MULTIPLE_UNIT_CELL  1 1 1
     &END CELL
     &COORD
Br   -9.9728292618205700E+01    1.1066785846247747E+02    4.8946543536414893E+01
Br   -1.1705262451870129E+02    1.2485725844737284E+02    8.8177384429293511E+01
Br    2.5239250061217632E+01   -7.8993084460352861E+01   -3.3614322340341161E+01
Br   -2.7590296625038054E+01   -3.0244790981095235E+01   -6.7829850081545047E+00
Br    3.5665700374569134E+01   -5.4158573815086413E+01    6.6889493518926244E+00
Br    1.7386819368918200E+01    8.5672565142147228E-01   -4.4863715050981121E+01
Br   -1.9202434868606775E+00    1.4894074216795359E+00   -1.0480715335859985E+01
Br   -6.2894529632318283E+00    8.6458561313185580E+00    2.9750286231729550E+01
Br   -2.9045002572200108E+01    7.8975007746270350E+01    1.2344523052826180E+01
Br   -3.1672959321928207E+01    8.6929577669302873E+01    3.7086894149839040E+01
Br   -4.1351722476870229E+01    8.3489122607571218E+01    4.4635479367542558E+01
Br    8.3479782199007218E+01   -9.5113515639218093E+01   -5.9711485716843995E+01
Br    6.2244408877437820E+01   -3.9235365733631838E+01   -1.6940306677650465E+01
Br    8.2348698878409735E+01   -6.8622033279687798E+01   -3.0582668434219675E+00
Br    6.1540955362526248E+01   -2.2827418392602933E+01   -3.7413247323918561E+01
Br    6.8613166082452310E+01   -8.2184681432401359E+00   -1.9151899475573103E+01
Br    3.1497259427292065E+01    1.6531446435573933E+01    8.4416929231766868E-01
Br    4.2694967270815724E+01    8.8918776768056887E+01   -1.5880914728765170E+01
Br    7.5109344167918806E+01    8.2434886581992657E+01   -1.5540960104499911E+01
Br    1.4632817092563000E+01    6.3057490559543091E+01    2.2988634685425644E+01
Pb   -8.4705230242266765E+01   -4.3172731470152279E+01   -3.2567443101843359E+01
Pb   -5.1143930655514140E+01   -6.3718017796999696E+01    8.6154928209309620E+00
Pb   -9.8488508806533616E+01   -2.3132667633195972E+01    4.5402747782038425E+01
Pb   -2.8276394831498767E+01   -5.8935490558813754E+01   -6.0829982587821348E+01
Pb   -1.0869409057781267E+02    3.5233218029139458E+01    1.2277292908979330E+01
Pb   -7.5899104544760007E+01    6.4692625892455142E+00    2.6941988313630151E+01
Pb   -1.3961249610886730E+02    7.0942243284587462E+01   -6.7599135903408385E+00
Pb   -1.1061833871759526E+02    1.0912184726032523E+02    2.2849570659398882E+01
Pb   -1.0191604496183979E+02    9.8288559688373383E+01    5.3555748168083589E+01
Pb    1.6057554530908011E+01   -8.4572270406933242E+01   -5.4621253584556449E+01
Pb   -7.1415630454451975E+00   -6.4004979624805429E+01   -1.4741857281590118E+01
Pb   -3.6495159776898255E+01   -6.0523143952395849E+01    2.0445838683994165E+01
Pb    1.7987499196441554E+01   -1.7355891137496613E+01   -6.7737127392106586E+01
Pb   -2.5785616641147612E+01    1.3713560649558488E+01   -1.1711154716987268E+01
Pb   -7.1850823220667692E+01    2.1868695788777831E+01    2.3138695949633092E+01
Pb   -4.0312695149644163E+01    6.0428221663995323E+01   -1.2034881076130267E+01
Pb   -6.0336757334330969E+01    1.2626246614494373E+02    1.4392211759702736E+01
Pb   -9.3536550892104415E+01    1.2186589585216733E+02    6.5184440845543321E+01
Pb    8.8078332407082215E+01   -1.3044289631764079E+02   -9.1942366287111255E+01
Pb    7.0742281812837206E+01   -9.7750262821812683E+01   -4.8142721250714892E+01
Pb    8.0501212744716682E+01   -8.4705866086745417E+01   -1.7073839683447428E+01
Pb    5.2741158873265803E+01   -2.3155220107436591E+01   -3.0390403087450373E+01
Pb    6.5091037600965294E+01   -2.5394897660610109E+01   -2.7973494743758717E+01
Pb   -4.4922419125055661E+00    7.3305280932657713E+00    1.0917477603799643E+01
Pb    3.6115445217826789E+01    6.9689194393939886E+01   -4.6681374614993395E+01
Pb    1.0823057250086398E+01    7.4038094542578690E+01   -2.4820409016375947E+01
Pb    4.6399131794935116E+00    6.4240277464893893E+01    9.2105745079596328E+00
Pb   -6.5887993653227795E+01   -6.5479904877806376E+01   -2.4505126346539651E+01
Pb   -4.1504523031804354E+01   -6.4496171714065767E+01    6.3655050006612557E+00
Pb   -4.2552168811612319E+01   -3.9395832264559566E+01    4.3608144309317765E+01
Pb   -6.6282657137462778E+01   -2.7071682781896906E+00   -2.5140164380205722E+01
Pb   -6.1581905727884781E+01    1.5099107615191450E+01    1.0790955424209933E+01
Pb   -4.5681471418736344E+01   -1.8275436224193953E+01    3.7492447215350687E+01
Pb   -6.7243482625028449E+01    8.1693377761836757E+01   -1.1963527854286584E+01
Pb   -1.0145525328716960E+02    1.1217970519306029E+02    4.6093606421290055E+01
Pb   -1.1365158298398660E+02    1.1162832049767820E+02    6.5552431863778452E+01
Pb    2.0602401459954319E+01   -8.0408176276572064E+01   -3.4938322038993327E+01
Pb    7.7434835883192676E+01   -8.5685664902261337E+01   -2.9460728562721386E+01
Pb    3.9699690930156777E+01   -7.5424745621317030E+01    1.0471882510630889E+01
Pb    1.0338086787501272E+01    1.1869751073163908E+00   -4.5041999703286507E+01
Pb   -4.1255679547200136E-01    9.4199988709525773E+00   -7.8307250278232559E+00
Pb   -4.7973400624994440E+00    5.7289864429941648E+00    2.9239548696452722E+01
Pb   -3.0024931936905450E+01    7.5654891823541476E+01    1.2031825746414784E+01
Pb    2.3856739305212740E+00    8.0875476847400662E+01    1.3422928077611033E+01
Pb   -4.1092702528173490E+01    8.6128489992295712E+01    4.6640522040897807E+01
Pb    7.9870694666957775E+01   -9.2320317061535079E+01   -6.0045176081523330E+01
Pb    1.0302583405723647E+02   -8.4717549267293720E+01   -1.8239291513886752E+01
Pb    8.5326051691727528E+01   -7.0502840221833878E+01   -4.2088773405650848E+00
Pb    8.3772809852600446E+01   -3.4813846361124575E+01   -4.2502534126217419E+01
Pb    8.5808600732663976E+01   -3.3330161171064965E+01   -2.9111223561712812E+01
Pb    1.1192086560121149E+01    3.4847213002207069E+00    2.1013449998498540E+01
Pb    3.8485827073081140E+01    6.6512936650733096E+01   -2.8408268096720938E+01
Pb    9.1120957197588979E+01    3.6360123923403705E+01   -1.8135727360542251E+01
Pb    7.7895192393091275E+00    6.6865432120528055E+01    1.9131652000028819E+01
Pb   -4.9619659041198759E+01   -1.0485694355687440E+02   -5.5055277135678757E+01
Pb   -6.5645524867426388E+01   -6.7612836704835516E+01   -9.4452907622414484E-02
Pb   -4.5974704661174535E+01   -1.1417428813279167E+02    1.8484366022798071E+01
Pb   -7.1459701412868668E+01   -3.9038176816006015E+01   -5.2303247691297663E+01
Pb   -1.0134848822237069E+02    9.7475462841243630E+00    6.6501893880351091E+00
Pb   -9.0235918315325847E+01   -1.5388501303700860E+01    2.4426399188002001E+01
Pb   -1.4318735043173490E+02    5.4530427285053207E+01   -4.3215122207538723E+00
Pb   -1.1857003646719107E+02    5.2445323951249755E+01    4.3249492511055827E+01
Pb   -1.1438751143885935E+02    7.3443840663737021E+01    4.1550840207592408E+01
Pb    1.7496768021178028E+01   -1.2238138837558870E+02   -5.9790224344176089E+01
Pb   -1.5143204261358212E+00   -8.7899623300139638E+01   -3.8185922202464340E+01
Pb   -2.4119765164745328E+01   -8.2849079443879120E+01    6.2529440452176628E+00
Pb   -1.5337720019019862E+01   -5.3331150709574025E+01   -5.1996446136330214E+01
Pb   -2.8530197070361602E+01   -3.0648707506663310E+01   -3.1097202665971135E+00
Pb   -2.7571369852018190E+01   -2.6211180117091871E+01    2.4254767072676300E+00
Pb   -2.0473913263983430E+01    3.7335463564588068E+01   -2.9983564116043770E+01
Pb   -1.9051588593579350E+01    1.9151795536721728E+01   -1.5423649236410165E+01
Pb   -5.7835751829497283E+01    7.5403655780244122E+01    5.5774175599294111E+01
Pb    9.3094152635127855E+01   -1.5397785882449301E+02   -8.8225861854702529E+01
Pb    2.7669910843094858E+01   -1.1032208214703506E+02   -3.6176477657275598E+01
Pb    7.6635673674125755E+01   -9.8974265118846191E+01   -1.8370534734042444E+01
Pb    5.4660799925482166E+01   -3.8368762649764271E+01   -8.1684991462900328E+01
Pb    2.7000997349218583E+01   -2.4848172636184898E+01   -1.9661238457403339E+01
Pb    5.8268655683997046E+01   -4.7906840835990167E+01   -1.2161296360366991E+01
Pb    6.1573051711331537E+01    3.7469491333402898E+00   -4.8564390741858233E+01
Pb    4.3173495082437171E+01    6.9955345656908330E+00   -1.1589051664245648E+01
Pb    3.2145039275462153E+01    9.6077860805871769E+00   -9.0628930824092202E-01
Pb   -5.0457863898328576E+01   -6.5211391571824052E+01   -3.7604120852143673E+01
Pb   -1.1489580701353889E+01   -9.8388617287402113E+01   -1.7234987990928776E+01
Pb   -4.4313982191921532E+01   -1.0292225175325825E+02    4.1416086859581078E+01
Pb   -3.2024907781182009E+01   -4.4666912989887955E+01   -4.4303681347599650E+01
Pb   -5.2055756395745469E+01   -2.9880023289818180E+01   -6.7550151974468937E+00
Pb   -8.0906629436160486E+01   -2.4162073759349088E+01    4.1014943500277909E+01
Pb   -2.1252523789261772E+01    3.9500585614532802E+01   -1.5364759474535335E+01
Pb   -7.5962406888014598E+01    4.9433410132305077E+01    2.4166846631605345E+01
Pb   -8.1602200068338632E+01    6.7927001490483093E+01    7.7155825534717991E+01
Pb    1.6201903761311993E+01   -9.4356346068082942E+01   -4.7537013816628303E+01
Pb    1.8836038260189682E+01   -1.1229187395997296E+02   -2.3087123605435437E+01
Pb    3.5520733772821657E+01   -1.2572052361933254E+02    1.8104551534154616E+01
Pb    5.2446962811288218E+00   -6.1584387596589998E+01   -5.6134213644148709E+01
Pb   -1.0642691673049004E+01   -1.4107184609007588E+01    8.7905798758877687E+00
Pb    2.4022627586862178E+01   -4.6124793386815263E+01    7.3213758473128436E+00
Pb    2.0794811779665480E+01    3.7851285084522935E+01   -3.5412678324359476E+01
Pb    1.6586993205429359E+01    5.3423621125523111E+00   -2.2154665695439215E+00
Pb   -3.8709173182049469E+01    6.0814054144242881E+01    4.3382460761427240E+01
Pb    1.1335470544620885E+02   -1.4388832577740251E+02   -6.0472596327875252E+01
Pb    7.3424395022840741E+01   -1.3795863654188705E+02   -1.5779323822300446E+01
Pb    8.3496202835407260E+01   -1.3248548141861821E+02   -5.2261677999943394E+00
Pb    1.0647503675632063E+02   -6.0234187957751011E+01   -5.4720277926560769E+01
Pb    6.8879807760841970E+01   -3.6209799247707963E+01   -1.6578606610460167E+01
Pb    4.3659362554653384E+01   -2.6381297951102891E+01    2.4319172179923747E+01
Pb    6.4692787558245868E+01   -2.1918000718645391E+01   -3.5852608532278367E+01
Pb    5.9088299541229389E+01   -1.0739989933203377E+01   -1.4484973056360751E+01
Pb    7.8929472045288627E+00    6.0327525828619358E+01    4.4844597883897926E+01
Cs   -1.7002111304379941E+01   -1.1817163732573565E+02   -5.7198363869750104E+01
Cs   -2.6864786106612641E+01   -5.4281233558605336E+01   -1.0284277433448789E+01
Cs   -6.1940895516552295E+01   -2.7186683833325958E+01    5.3832690995781682E+01
Cs   -9.5184047091980410E+00    3.4350251059391161E+00   -4.0392534621660779E+01
Cs   -1.1754057836376475E+01   -2.8977624060544493E+01   -2.9284101526128627E+01
Cs   -6.4436132878323718E+01   -1.0173429754941308E+01    3.0955217225319036E+01
Cs   -4.5694509202702577E+01    2.3503634068601425E+01   -2.7057312363026121E+01
Cs   -5.6945185389004202E+01    6.2529283020646233E+01   -3.8782784518668243E+00
Cs   -9.7418087441175061E+01    8.7908381710689625E+01    2.2458681652444117E+01
Cs    7.3804056839615129E+01   -1.4876742543076213E+02   -8.3279750574894294E+01
Cs    1.0978544912212042E-01   -8.6347324090346063E+01   -2.1005291033373741E+01
Cs    6.1399001644823315E+01   -9.5636931703473053E+01   -2.4895020318807170E+01
Cs    2.7721465731894970E+01   -1.8547206006945498E+01   -5.1720091928761974E+01
Cs   -1.1443877216562463E+01    4.6659425788682247E+00   -5.7181249413201822E+00
Cs   -1.5417556891327420E+01    7.4461099830164041E+00    3.0413958635548987E+01
Cs    3.4477695899511738E+00    4.2879317311821410E+01   -5.0541390641606469E+01
Cs   -6.4120355500086390E+00    6.9445313377779229E+01   -5.1129762180083231E+00
Cs   -3.7597719595570503E+01    6.2057163726115967E+01    2.6225395059744372E+01
Cs    1.1567646784046856E+02   -1.4194065807026854E+02   -1.0270788995829678E+02
Cs    7.5203146482600815E+01   -1.1516629469671959E+02   -5.8699321325052132E+01
Cs    1.0271646074304319E+02   -1.6190956360836699E+02   -3.5270971039921960E+01
Cs    6.9496166028221637E+01   -2.7443453112142503E+01   -5.4785493908350681E+01
Cs    8.8967408037003949E+01   -5.0031643964238157E+01   -3.3379821940259141E+01
Cs    6.8574456852206822E+01   -3.2531100514347806E+01   -8.5502163566283471E+00
Cs    5.6604520869097733E+01    3.0912808913743383E+01   -4.6443513164984029E+00
Cs    6.7893250558437444E+01    2.6095841142041966E+01    2.0470164134779299E+01
Cs    1.6021194889584589E+01    5.6291188435920915E+01    2.6346690407084939E+01
Cs    3.4198477869213741E+00   -4.1834644805434046E+01   -4.9257468026360471E+01
Cs    2.9429894401416803E+01   -3.5681759429856733E+01   -1.5550384817120717E+01
Cs   -2.4728976321355038E+01   -6.1600212621423424E+01    3.8580204057270784E+01
Cs   -5.2638592049586123E+01    4.6309141603188397E+00   -1.7150803069557465E+01
Cs   -5.1430967766982086E+01    7.3182166380584235E+01    4.1822705974675458E+01
Cs   -5.0086648441925249E+01    1.0672253577536276E+01    3.6580182594466010E+01
Cs   -4.9783894415774249E+01    1.1540172674636665E+02   -2.0455479202848332E+00
Cs   -4.4571427193493591E+01    1.0807185651812462E+02    5.5618407450921154E+01
Cs   -6.8017463118324656E+01    1.4645013432228816E+02    6.5034239137316789E+01
Cs    9.5310610542227906E+01   -5.9279251078745247E+01   -5.9540102645313986E+01
Cs    6.1514024298602251E+01   -3.5970361411158954E+01   -2.7671098428528357E+01
Cs    3.9994883066844707E+01   -6.2252484155009228E+01    7.2093248964142195E-02
Cs    2.9207971975684028E+01    3.0178321519289135E+01   -3.3061882125677592E+01
Cs    3.6002185761730722E+01   -2.4121323199861489E+01   -1.0659340260529456E+01
Cs   -5.6791283963149262E+00    5.0827273356901898E+01    3.1935321234902155E+01
Cs    3.4703914204890851E+00    8.7915195069954052E+01   -2.3298659736532805E+01
Cs    2.1673429902964600E+01    8.8411832824450542E+01   -2.1083615433515213E+01
Cs   -7.5302753888454115E+00    1.2312948386398580E+02    3.0673820651037524E+01
Cs    1.1927362773413391E+02   -6.2038337036031272E+01   -4.8789510911727596E+01
Cs    1.5910483881010583E+02   -9.3151372585375455E+01   -7.4034882278090251E+01
Cs    7.0263603042472226E+01   -5.4584017969530862E+01    1.7105077129244897E+01
Cs    1.1327356993433538E+02   -5.7841585618119858E+01   -5.9399313313914682E+01
Cs    1.0812618110817925E+02   -3.0252139049033087E+01   -4.6591897152188658E+01
Cs    1.2470919006355979E+02   -2.9894146850513451E+01   -3.9453584241996270E-02
Cs    7.5638879136318792E+01    4.3753175639673373E+01   -3.8539527227535743E+01
Cs    8.1788330303935410E+01    7.5784622303620466E+01   -1.3737191112114207E+01
Cs    7.3045961268615414E+01    6.9280374807436587E+01    2.4001168114309159E+01
Cs   -1.8336446308433995E+01   -5.4154814934026113E+01   -4.2939011704727214E+01
Cs   -5.6246124915278926E+01   -2.0944461362961583E+01    5.2890722103626775E+00
Cs   -8.3086260658112096E+01   -1.4705397791063586E+01    5.7904263262822973E+01
Cs   -3.6175313711342611E+01    2.7533435112677324E+01   -8.9234045297663229E+00
Cs   -8.6939591309951908E+01    2.6528736418334670E+01    1.7915933835777828E+01
Cs   -5.8898396504461502E+01    2.4168157703942885E+00    5.1717534574514104E+01
Cs   -7.5282467333686839E+01    1.3163236054548469E+02    1.0402108844889797E+01
Cs   -9.2533973121320457E+01    1.1591843330422698E+02    5.0559672412447661E+01
Cs   -1.7203727966814458E+02    1.1337166648976968E+02    9.4885783498609612E+01
Cs    3.3547161712559152E+01   -4.1710597184776518E+01   -6.8080279371932050E+01
Cs    2.3787534187627135E+00   -3.8405158320892689E+01    5.1313150848548119E+00
Cs    1.4921191847987446E+01   -2.3192761307813402E+01    2.1237426416596289E+01
Cs    1.3748853174705898E+01   -1.2026206127055938E+00   -2.6752382097026285E+01
Cs   -1.7835760715367038E-01    2.3225284068358608E+01    1.2450755199282268E+01
Cs   -3.3033106133905875E+01    3.5385250964416997E+01    4.5124570232801361E+01
Cs   -2.7273591394070021E+01    8.5957248858455770E+01    1.4163116123923444E+01
Cs   -1.3357502525449796E+01    7.7109499519024865E+01    2.4502542270377972E+01
Cs   -6.3217451142974298E+01    9.7130912184124938E+01    9.1663253732631063E+01
Cs    8.3769196151050679E+01   -1.0023557698284218E+02   -5.7752197473905099E+01
Cs    1.0448947725464022E+02   -6.6659223404520375E+01   -1.0625869900956262E+01
Cs    8.9417572509688554E+01   -5.8473532820552784E+01    2.1802917854935934E+01
Cs    9.5616807662617603E+01   -1.7778449785440404E+01   -2.8940921600422580E+01
Cs    2.1376464899377417E+01    1.8094790536462050E+01    2.6459787142305281E+01
Cs    1.2405362314340167E+01    4.3731795556084371E+01    4.4851532996009688E+01
Cs    7.4131813744730778E+01    7.6929689161844109E+01   -2.2277661463619065E+01
Cs    7.1497374381351362E+00    9.0248229558816334E+01    1.4770390647376873E+01
Cs    1.3968202304740879E+01    9.5243709000750059E+01    5.6090044068301452E+01
Cs   -7.0766273204451309E+01   -7.4878480430774019E+01   -2.3315131097345919E+01
Cs   -4.3347614072801782E+01   -8.9404724222845132E+01    4.3270521477621607E+01
Cs   -1.1548166529275498E+02   -1.1356197296860566E+01    6.7014558592876298E+01
Cs   -1.0650294840977705E+02   -2.4073311288203025E+00   -2.9979553986381401E+01
Cs   -1.0096602446476992E+02    1.5789084266588690E+01    3.0903136708534163E+01
Cs   -8.8760971112171362E+01   -3.2724514818508874E+00    4.5717284970263762E+01
Cs   -9.3563676331883642E+01    1.0742947437625416E+02    1.8775894446278059E+01
Cs   -6.9531669818237688E+01    1.1497704048158167E+02    2.1734103463394259E+01
Cs   -9.5184784754517437E+01    8.1852888840172881E+01    7.2382503538257524E+01
Cs    4.5810972925545776E+00   -7.4598448122490510E+01   -3.6354590184073665E+01
Cs   -2.1672291927871800E+01   -8.1552586025268027E+01   -1.4465235653721511E+01
Cs    1.5749931249404241E+01   -9.1128434202810652E+01   -2.3800227947170187E+00
Cs    5.0322910583711433E+00   -2.3821134168566882E+01   -1.8305105452635594E+01
Cs   -3.6677204531416599E+01   -2.1568158316770962E+01   -6.1695011872864862E+00
Cs   -2.7264135276634608E+01   -4.2008253753107986E+01    7.3688581748206161E+00
Cs    6.8365425630965309E+00    3.3414813331493320E+01   -2.6012533548321276E+01
Cs   -1.1484437196490887E+01    4.1834491203956695E+01   -8.1590649423501898E+00
Cs   -6.4157691817829274E+01    1.1076083987723308E+02    5.0969025679153674E+01
Cs    4.3076787415667212E+01   -1.3001656456642371E+02   -6.0960088881089632E+01
Cs    6.4232489733767920E+01   -8.5613161633047312E+01   -3.4351085528311948E+01
Cs    6.6254711334607819E+01   -8.1135515677453228E+01   -5.5002710247455013E+00
Cs    5.0743316409883384E+01   -4.0696128019999115E+01   -5.9145658096626484E+01
Cs    1.7207512862651061E+01   -2.4881251816889367E+01   -5.4451271517852753E+00
Cs    2.4984862297868906E+00   -6.9837504588830726E+00    1.8678179269024607E+01
Cs    4.5426527608532844E+01    2.9037150898649973E+01   -4.7454958014727886E+01
Cs    2.5807818537053080E+01    2.9111210687295433E+01   -8.4057184698606129E+00
Cs   -1.2922547569684077E+01    9.2283390685289348E+01    5.6667251780778571E+01
Br   -6.7598592008374780E+01   -6.2868151040200871E+01   -2.4467238138777578E+01
Br   -8.8097764454031605E+01   -1.8828578177197450E+01    2.3245910298727978E+01
Br   -9.6101248814528745E+01   -2.4914890610915130E+01    4.3748538370867585E+01
Br   -6.8123227007106777E+01   -4.8369709263290073E+00   -2.3313997205455468E+01
Br   -8.9120305597708835E+01    2.6166588493619386E+01    3.8502606729829636E+00
Br   -7.7505265456411948E+01    9.7545213949351570E+00    2.7026385747422630E+01
Br   -5.4012537499944735E+01    7.5297121799186840E+01   -1.3233394610048938E+01
Br   -9.7275471447325444E+01    1.1303263664991360E+02    4.3802704122205299E+01
Br   -1.1075170940358542E+02    1.1043340683248576E+02    6.4283835794466512E+01
Br   -1.6311261905892451E+01   -5.7873481117723706E+01   -4.9311186583663648E+01
Br   -1.2847166818221901E+01   -6.2274934383271017E+01   -1.5587727997114769E+01
Br   -2.5952498135401321E+01   -3.3899780155785002E+01    8.2264759233312148E+00
Br    3.7863829582454272E+01   -4.0806440989456526E+01   -6.3092629655825050E+01
Br    3.2952092744149608E+00    1.0369800126872331E+01   -5.2493869057873290E+00
Br   -1.2100574038631370E+01    6.9215389674407923E+00    3.3955995020182939E+01
Br   -3.8352484507921247E+01    5.7870458850417485E+01   -1.1220800508578977E+01
Br    1.7410055509807336E+00    7.8076039026611127E+01    1.5149949558665497E+01
Br   -7.7266031825732256E+01    1.1627741438691066E+02    4.8755517309841672E+01
Br    9.1313930952028471E+01   -5.8671624745081694E+01   -6.1755207105168672E+01
Br    7.8427095513907091E+01   -9.7420390947400435E+01   -1.6226824093102163E+01
Br    7.9353402784364448E+01   -8.1249371966878499E+01   -4.9219110234848147E+00
Br    8.1789735649939530E+01   -3.4882456831699315E+01   -4.4438453254022669E+01
Br    6.8212016501393705E+01   -2.6911958357148553E+01   -2.8456977177391682E+01
Br    1.6642335424512481E+01    6.5349557224963819E+00    1.8830812384476140E+01
Br    3.9417619301506051E+01    6.3881393588051274E+01   -2.7558191879090526E+01
Br   -7.3202557086979416E+00    7.9666801950077172E+01   -1.8774880136892175E+01
Br   -5.4442939391590997E+01    1.1058127237120065E+02    5.2976455356656537E+01
Br   -5.0644680957448060E+01   -9.9923985645239327E+01   -1.1264513182651655E+01
Br   -3.3962891868456722E+01   -4.0089131228120849E+01    9.3616997709165179E+00
Br   -1.1597325348395340E+02   -5.2455663599250153E+00    5.2681697658208371E+01
Br   -1.0507237253479532E+02    3.5452213806493134E+01    1.0565532735672756E+01
Br   -1.2410933378623463E+02    1.8907119521686123E+01    2.4341002979719025E+01
Br   -7.1379108630400353E+01   -2.5043330524092841E+01    4.3125813698727654E+01
Br   -1.0294395840921945E+02    1.0588867937242624E+02    2.0526362161004680E+01
Br   -9.7542635613030953E+01    9.4422384582434560E+01    5.1186434486874532E+01
Br   -1.8245668434926907E+02    1.0816117487311460E+02    9.5894040581007673E+01
Br    7.4571340983707426E+00   -7.1057272155356912E+01   -3.3589871183025387E+01
Br    7.6651928918049336E+01   -8.5563337055446354E+01   -2.6438473629469151E+01
Br   -2.1939702890121858E+01   -6.1318628714603378E+01    4.8471205832656821E+01
Br    7.2548779369055083E+00   -8.2146430077153595E-02   -4.6190419565450952E+01
Br   -6.9268737799095973E+01    2.7669535223693220E+01    2.6744342235778106E+01
Br   -2.7639762217928951E+01    1.5792068303702735E+01    3.9830698270240667E+01
Br   -6.5531012591025885E+01    1.2507437736236822E+02    2.0249749095280496E+01
Br    9.5095264130484836E+00    7.9515370156704506E+01    8.2008512797841018E+00
Br   -6.6547459433293440E+01    7.2519718115313395E+01    8.0012057912659429E+01
Br    6.9096887620841912E+01   -9.9519415128054845E+01   -4.9727445235151720E+01
Br    1.0002981819617372E+02   -8.8738783510008332E+01   -1.9930512690818947E+01
Br    4.2342358966815326E+01   -8.8897614851911925E+01    1.7804932066208728E+01
Br    6.5884303492832998E+01   -2.3508279317143881E+01   -3.3720840454238349E+01
Br    2.2917471854395515E+01   -2.9639255658494001E+01   -1.3189893227815874E+01
Br    1.0140914139217115E+01    1.2863927476374728E+01    7.6357945812439823E+01