 # Version information for this restart file 
 # current date 2020-12-23 14:59:22.698
 # current working dir /Users/bvanbeek/Downloads/MM_MD_workdir/md
 # Program compiled at                             Fri Apr 19 11:24:34 CEST 2019
 # Program compiled on                                             192.168.1.124
 # Program compiled for                           Darwin-IntelMacintosh-gfortran
 # Source code revision number                                         svn:18464
 &GLOBAL
   PRINT_LEVEL  LOW
   PROJECT_NAME cp2k
   RUN_TYPE  MD
 &END GLOBAL
 &MOTION
   &MD
     ENSEMBLE  NPT_F
     STEPS  10000
     TIMESTEP     2.4999999999999996E+00
     STEP_START_VAL  2000
     TIME_START_VAL     4.9999999999997863E+03
     ECONS_START_VAL    -5.5495911227455137E+00
     TEMPERATURE     3.0000000000000000E+02
     &BAROSTAT
       PRESSURE     1.0100000000000000E+00
       TIMECON     4.9999999999999994E+02
       &VELOCITY
             2.0142421993213961E-06   -1.4948407243633284E-06    2.1093188825349047E-06   -1.4948407243633223E-06 \
             3.3382721497122661E-06    5.6852664719364341E-07    2.1093188825349059E-06    5.6852664719364299E-07   -2.0186309511539294E-06
       &END VELOCITY
       &MASS
             2.1920353963970435E+08    2.1920353963970435E+08    2.1920353963970435E+08    2.1920353963970435E+08 \
             2.1920353963970435E+08    2.1920353963970435E+08    2.1920353963970435E+08    2.1920353963970435E+08    2.1920353963970435E+08
       &END MASS
       &THERMOSTAT
         TYPE  CSVR
         &CSVR
           TIMECON     9.6755373060191392E+00
           &THERMOSTAT_ENERGY
                 1.4992965133629830E-03
           &END THERMOSTAT_ENERGY
           &RNG_INIT
Wiener process for Thermostat # 1        1 F T F   4.0691149217710774E-03        3725711060.0         353298866.0        1106419462.0         360931104.0        2487807989.0         617293997.0             12345.0             12345.0             12345.0             12345.0             12345.0             12345.0             12345.0             12345.0             12345.0             12345.0             12345.0             12345.0
           &END RNG_INIT
         &END CSVR
       &END THERMOSTAT
     &END BAROSTAT
     &THERMOSTAT
       TYPE  CSVR
       &CSVR
         TIMECON     4.9999999999999994E+02
         &THERMOSTAT_ENERGY
              -1.3413259915548461E+00
         &END THERMOSTAT_ENERGY
         &RNG_INIT
Wiener process for Thermostat # 1        1 F T F   1.3495134992141958E-01         853414545.0        1449399121.0         842105118.0         629262880.0        3498176076.0        1827973944.0             12345.0             12345.0             12345.0             12345.0             12345.0             12345.0             12345.0             12345.0             12345.0             12345.0             12345.0             12345.0
         &END RNG_INIT
       &END CSVR
       &PRINT
         &TEMPERATURE  ON
           FILENAME 
           &EACH
             MD  10
           &END EACH
         &END TEMPERATURE
       &END PRINT
     &END THERMOSTAT
     &AVERAGES  T
       &RESTART_AVERAGES
         ITIMES_START  1
         AVECPU     4.9584126000292481E-02
         AVEHUGONIOT     0.0000000000000000E+00
         AVETEMP_BARO     2.7474373016282516E+02
         AVEPOT    -5.3034850277231458E+00
         AVEKIN     6.3544509401070148E-01
         AVETEMP     2.4818484950263829E+02
         AVEKIN_QM     0.0000000000000000E+00
         AVETEMP_QM     0.0000000000000000E+00
         AVEVOL     2.4438388615208320E+05
         AVECELL_A     5.5949456603682165E+01
         AVECELL_B     7.9086421723872419E+01
         AVECELL_C     5.5144233105411573E+01
         AVEALPHA     9.0402098128603839E+01
         AVEBETA     8.9540122737390320E+01
         AVEGAMMA     8.9173616642351973E+01
         AVE_ECONS    -1.2906108678075969E+00
         AVE_PRESS     5.5303898864686989E+00
         AVE_PXX     1.9775449665405296E+00
       &END RESTART_AVERAGES
     &END AVERAGES
   &END MD
   &PRINT
     &TRAJECTORY  ON
       &EACH
         MD  10
       &END EACH
     &END TRAJECTORY
     &CELL  ON
       FILENAME 
       &EACH
         MD  10
       &END EACH
     &END CELL
     &FORCES  ON
       FILENAME 
       &EACH
         MD  10
       &END EACH
     &END FORCES
   &END PRINT
 &END MOTION
 &FORCE_EVAL
   METHOD  FIST
   STRESS_TENSOR  ANALYTICAL
   &MM
     &FORCEFIELD
       VDW_SCALE14     1.0000000000000000E+00
       EI_SCALE14     1.0000000000000000E+00
       SHIFT_CUTOFF  T
       DO_NONBONDED  T
       IGNORE_MISSING_CRITICAL_PARAMS  T
       &SPLINE
         R0_NB     1.0000000000000001E-01
       &END SPLINE
       &NONBONDED
         &LENNARD-JONES
           ATOMS Cs Cs
           EPSILON     2.2644852172126850E+01
           SIGMA     5.8500000000000005E+00
         &END LENNARD-JONES
         &LENNARD-JONES
           ATOMS Cs Pb
           EPSILON     8.6920055954630953E+01
           SIGMA     5.1000000000000005E+00
         &END LENNARD-JONES
         &LENNARD-JONES
           ATOMS Br Pb
           EPSILON     2.0528187276773045E+02
           SIGMA     2.9000000000000004E+00
         &END LENNARD-JONES
         &LENNARD-JONES
           ATOMS Br Cs
           EPSILON     5.3481070753900497E+01
           SIGMA     3.8500000000000005E+00
         &END LENNARD-JONES
         &LENNARD-JONES
           ATOMS Br Br
           EPSILON     1.2630795322675199E+02
           SIGMA     4.2599999999999998E+00
         &END LENNARD-JONES
         &LENNARD-JONES
           ATOMS Pb Pb
           EPSILON     3.3363415533600221E+02
           SIGMA     5.9800000000000004E+00
         &END LENNARD-JONES
       &END NONBONDED
       &CHARGE
         ATOM Cs
         CHARGE     2.0000000000000001E-01
       &END CHARGE
       &CHARGE
         ATOM Pb
         CHARGE     4.0000000000000002E-01
       &END CHARGE
       &CHARGE
         ATOM Br
         CHARGE    -2.0000000000000001E-01
       &END CHARGE
     &END FORCEFIELD
     &POISSON
       PERIODIC  XYZ
       &EWALD
         EWALD_TYPE  SPME
         GMAX  22
         O_SPLINE  4
       &END EWALD
     &END POISSON
     &PRINT
       &FF_INFO  LOW
         SPLINE_INFO  F
         SPLINE_DATA  F
       &END FF_INFO
     &END PRINT
   &END MM
   &SUBSYS
     &CELL
       A     3.0960632820483834E+01    2.8436473869059936E-01    2.9175320175717684E-01
       B     3.7400604538761406E-01    4.3904697670133842E+01    2.4151657365687911E-03
       C     2.0655828605581505E-01    4.0255003765694200E-02    3.0710556937633232E+01
       PERIODIC  XYZ
       MULTIPLE_UNIT_CELL  1 1 1
     &END CELL
     &COORD
Br   -8.9765172580475046E+00    1.7275106479082826E+01   -5.0372521607605580E-01
Br   -1.0711301279706580E+01    1.8420252644353507E+01    1.0142006606798349E+01
Br    3.3969796941401742E-01   -1.0787119996843803E+01   -1.2341881114329384E+01
Br   -4.4616898179452008E-01   -7.8368177329375666E+00   -2.0522696634336470E+00
Br   -7.4402731972214886E-01   -9.9967159410775732E+00    8.9611755268144204E+00
Br   -6.4106766514165836E-01    3.8563286758308508E+00   -1.0659158954845218E+01
Br   -8.7766155325265860E-01    4.8177460814725679E+00    8.6420812387997392E-01
Br   -3.5259816608181435E-02    3.4982085277546551E+00    1.0925766488620599E+01
Br   -6.6706222058729092E-01    1.8179735408044440E+01   -1.0213090804959071E+01
Br    1.7763021917538513E-01    1.7175367335074338E+01    1.0686924336992214E+00
Br   -1.1020135468719527E+00    1.8443568473878141E+01    9.8987096577299507E+00
Br    9.1301220868129160E+00   -9.6814972946116846E+00   -9.9528853431408297E+00
Br    1.1466160507643798E+01   -8.1269602072977474E+00    1.3384604962202782E+00
Br    1.0751455095149732E+01   -1.3413219247383612E+01    9.7826915750492347E+00
Br    1.1693264726735586E+01    4.5257942144178847E+00   -9.7775412884447608E+00
Br    1.0673767635784987E+01    4.3848024446737721E+00    7.1701079247725463E-01
Br    8.3657109943980874E+00    5.0137325130555839E+00    9.8300778200179604E+00
Br    1.0036172603299297E+01    1.7889278899544976E+01   -8.8287336748249015E+00
Br    9.8255942548139856E+00    1.8640114020214103E+01    9.5972774760829205E-01
Br    1.0248692222651982E+01    1.6829772759279141E+01    1.0383610589241005E+01
Pb   -1.5928761406220787E+01   -1.5776532020089343E+01   -1.5930047637015821E+01
Pb   -1.5394288014689179E+01   -1.3762350835555960E+01   -4.6861754666158326E+00
Pb   -1.6063176130054014E+01   -1.5442645751513252E+01    5.2156492209056209E+00
Pb   -1.4892410970026091E+01   -8.3880764743494748E-02   -1.6042496811272102E+01
Pb   -1.5258375824985382E+01   -5.8958253447218656E-01   -4.9341995646193100E+00
Pb   -1.5049426902532892E+01   -1.0699430453876146E+00    5.0670785689571645E+00
Pb   -1.4904830161454095E+01    1.5063900162890210E+01   -1.6505327069002828E+01
Pb   -1.5664108009373919E+01    1.4113423532346701E+01   -5.6764691183999565E+00
Pb   -1.5235016578921833E+01    1.3326108337274160E+01    5.5069472478755781E+00
Pb   -6.0380270916637180E+00   -1.3481078950054217E+01   -1.5185052080594913E+01
Pb   -4.1299319165380473E+00   -1.5000697585993526E+01   -5.2472574748818905E+00
Pb   -4.7824223490903366E+00   -1.3755957086762653E+01    5.0347447451692160E+00
Pb   -5.3682168565125190E+00    2.7424365731917211E-01   -1.4251602836229248E+01
Pb   -5.7439542619989643E+00   -2.4700161471428818E-02   -5.4314591307798734E+00
Pb   -4.8361787952414410E+00    8.7619552686042579E-01    6.0505827424494498E+00
Pb   -5.5336087856992755E+00    1.4030179092852823E+01   -1.4383934040137829E+01
Pb   -5.0646670004470389E+00    1.5652666842931819E+01   -4.1773504963865440E+00
Pb   -5.6191694057475337E+00    1.5655815585857431E+01    5.2925385230208013E+00
Pb    4.5565494265325288E+00   -1.3833593453344951E+01   -1.6175378398446799E+01
Pb    4.7845958122859358E+00   -1.5456315340557124E+01   -7.5966531156112920E+00
Pb    6.0699471327679575E+00   -1.5738917369202673E+01    5.9537378297842087E+00
Pb    6.1287831421734094E+00    1.2957037931693101E+00   -1.4324966553209084E+01
Pb    5.9542002793757902E+00    1.2330698708880994E+00   -4.6079839965656957E+00
Pb    5.0076467295572415E+00    5.8018532747218077E-01    5.1691306331179625E+00
Pb    4.4561853800265361E+00    1.4104022306119489E+01   -1.6116266709091871E+01
Pb    5.3244379230798620E+00    1.5928524799271152E+01   -5.0422301810321057E+00
Pb    4.8006235496038698E+00    1.4123283680160556E+01    5.8122206566684991E+00
Pb   -1.0212924422538352E+01   -1.5382353434008778E+01   -1.0290113251911349E+01
Pb   -9.1366463669119771E+00   -1.4957058148377939E+01   -1.9147568048292826E-01
Pb   -8.7603526435062573E+00   -1.5501563958212566E+01    1.0204049650070708E+01
Pb   -1.0336720023254424E+01   -5.9922414336773344E-01   -1.0099217991925316E+01
Pb   -9.7182828975739213E+00   -6.2170536891525763E-01    4.9970017487397789E-01
Pb   -9.1546201148745237E+00    3.3332521734326731E-01    1.1266525576231748E+01
Pb   -9.8372580813661763E+00    1.5814047404069736E+01   -9.7842967265248664E+00
Pb   -1.0548227935298835E+01    1.4190399449673107E+01    1.1092453862672254E+00
Pb   -9.5180983684224874E+00    1.4470808566019501E+01    1.0620234680532226E+01
Pb   -6.4043736126801731E-01   -1.4699096003092324E+01   -1.1193836251361008E+01
Pb    6.5830586037751704E-01   -1.4077584292586637E+01    1.5620341310584498E+00
Pb    3.8760219323741718E-01   -1.3807838149434692E+01    9.1078496566322524E+00
Pb   -4.3332106048659663E-01    1.3454056869006830E+00   -9.3907498472468429E+00
Pb   -2.3717383857468263E-01    1.7908217317661879E+00    1.2335955515964254E+00
Pb    8.2152013619653019E-02    5.3084271983634457E-01    9.9339642922429139E+00
Pb    7.8427992612659120E-02    1.4596805902992040E+01   -1.0314766354972548E+01
Pb    1.9031985108523616E-01    1.4476220486308970E+01   -8.3325517345421013E-02
Pb   -5.6796287208638729E-01    1.5263712528493283E+01    9.7009609638582042E+00
Pb    1.0279329388901459E+01   -1.2946239684068646E+01   -1.0696927418086970E+01
Pb    8.8597304393418348E+00   -1.4538215670879280E+01    2.4054795504171450E-01
Pb    1.0587976692330653E+01   -1.6408415612897436E+01    1.0771630077333517E+01
Pb    1.0107205063667934E+01   -8.2229086547768115E-01   -1.0433206531480968E+01
Pb    9.6779804779240504E+00    7.7881782711548286E-01    4.7453370035353271E-01
Pb    8.5284128792806850E+00    1.5493383325127061E+00    9.8614551902707710E+00
Pb    1.0064489490523810E+01    1.5146273435701765E+01   -1.0045906899495785E+01
Pb    1.0300822548350721E+01    1.4614403603409167E+01    1.0387512147423650E+00
Pb    9.8203034798914377E+00    1.3983699831159969E+01    1.1106307511862882E+01
Pb   -1.4919544724914928E+01   -2.2485404289933594E+01   -1.5192928003876100E+01
Pb   -1.5728132956397411E+01   -2.0976798376999614E+01   -6.6064279232800827E+00
Pb   -1.5427319119397334E+01   -2.2797371576857376E+01    6.2929953330584114E+00
Pb   -1.6667523109142710E+01   -9.7462362898493229E+00   -1.7332293544463550E+01
Pb   -1.4114842918894706E+01   -6.4369964428837116E+00   -6.1480657394854887E+00
Pb   -1.6309282338433260E+01   -7.4503468907051582E+00    5.5582057192174288E+00
Pb   -1.4917248429050311E+01    6.5430527722676679E+00   -1.5470919276408322E+01
Pb   -1.5188590937645259E+01    7.8168026899035272E+00   -5.5057320074747738E+00
Pb   -1.5118508371829734E+01    6.7725025191546173E+00    4.9260023372766151E+00
Pb   -5.0594754782907598E+00   -2.2937270210262767E+01   -1.4535069542286710E+01
Pb   -6.0833201263471768E+00   -2.1446572348288520E+01   -5.8247793680407032E+00
Pb   -4.6004295314532921E+00   -2.2132659894459042E+01    4.2277478429842210E+00
Pb   -4.5636648634227575E+00   -6.7019766037226844E+00   -1.5358333469339433E+01
Pb   -3.5768225911526059E+00   -6.8143981240596707E+00   -4.6061310640770925E+00
Pb   -4.6555034191490767E+00   -6.1104820595063005E+00    5.3650166865872793E+00
Pb   -5.3189815841798600E+00    6.8809248816017394E+00   -1.4804323334208293E+01
Pb   -5.1345562428002935E+00    8.4187688237683957E+00   -4.7599885931344135E+00
Pb   -5.8402290206679428E+00    7.3914476447658712E+00    3.9753068326272376E+00
Pb    5.6363313946333005E+00   -2.3647672065227187E+01   -1.5618072332074235E+01
Pb    4.1595337501798060E+00   -2.1833858517427586E+01   -5.3738927323450651E+00
Pb    3.6243676889633814E+00   -2.1616560322399579E+01    4.2155760181734889E+00
Pb    5.1140198300252546E+00   -6.5302042303290007E+00   -1.4898159291724912E+01
Pb    3.3073806501653071E+00   -6.7413781465749087E+00   -5.0948321341996037E+00
Pb    5.1381621840075375E+00   -7.1131466524260336E+00    4.8715873313839717E+00
Pb    5.7348328137554798E+00    8.0918493304507013E+00   -1.4394137835439372E+01
Pb    6.0791037328455042E+00    7.7455610891009776E+00   -5.3571546997840995E+00
Pb    6.3858974971485649E+00    7.4003339689934009E+00    5.8377225847023597E+00
Pb   -1.0516210394210624E+01   -2.1882256916878109E+01   -1.0682422465274463E+01
Pb   -1.0447912167390273E+01   -2.2089157065218860E+01    5.4928827287815847E-02
Pb   -1.0709033027589330E+01   -2.2111975580734313E+01    1.0064857728872376E+01
Pb   -1.0175794017296212E+01   -7.7477763156343524E+00   -1.1342898736211090E+01
Pb   -8.7134619013295129E+00   -6.5274652806611764E+00   -6.9912324997707542E-01
Pb   -1.0200001139167448E+01   -7.8953303354322157E+00    1.0948286954332000E+01
Pb   -1.0715058988179276E+01    6.8207424953890827E+00   -9.8645365492140051E+00
Pb   -1.0199510595537854E+01    6.8409077288464468E+00   -1.2188323402942445E+00
Pb   -9.4414837440121637E+00    6.8492814350765165E+00    1.0075890710917532E+01
Pb   -9.0877447093302999E-01   -2.2224432196096959E+01   -9.8653249166846084E+00
Pb   -5.1403066786206664E-01   -2.2426973013308370E+01   -9.6245632711380158E-01
Pb   -8.5726936206198623E-01   -2.2594408147829430E+01    1.1096101458896445E+01
Pb   -3.6455762951965365E-01   -7.6028100837000308E+00   -1.1332104910628940E+01
Pb    2.0965133783041469E-02   -6.5071481908953075E+00    2.8170191375867659E-01
Pb    5.3044530118645083E-01   -6.8875613690160957E+00    9.6329295694756603E+00
Pb   -5.8118991340044146E-01    7.4121632854853869E+00   -1.0126948546696150E+01
Pb    2.3436134515717488E+00    9.0764864374678478E+00    1.0012171641570413E+00
Pb    7.0832298384638670E-01    7.5469856390994670E+00    1.1411582693185432E+01
Pb    9.4078460559984443E+00   -2.2327024435967793E+01   -9.6321095830687966E+00
Pb    8.7866785050753329E+00   -2.1932613542768951E+01   -1.1124989155519260E+00
Pb    1.1002885093825535E+01   -2.2298113339870071E+01    1.1268077740723349E+01
Pb    9.7501369774288111E+00   -6.8460389214468931E+00   -9.5743536346524092E+00
Pb    9.8460101523295602E+00   -6.1628457179887546E+00   -5.0384057919556990E-01
Pb    9.7217225979756634E+00   -7.4060352688275799E+00    9.4281883932962831E+00
Pb    1.0898786575629490E+01    7.4592991092306598E+00   -9.8099070058410245E+00
Pb    1.1194974908441287E+01    7.4507693681453624E+00    2.9571879776461746E-01
Pb    1.1354755433352356E+01    7.4263787677021584E+00    1.0169143306628166E+01
Cs   -1.1311317697235657E+01   -1.8409271783482009E+01   -1.5106569705321514E+01
Cs   -1.0283347617559238E+01   -1.8293597288985676E+01   -3.7932139116587003E+00
Cs   -1.0573350580580684E+01   -1.7754348895030809E+01    4.7260214727099505E+00
Cs   -1.0195949277332025E+01   -3.3352835957227374E+00   -1.5464027002178787E+01
Cs   -9.1408308629015753E+00   -4.4366051963479309E+00   -5.7140232892078320E+00
Cs   -1.1511068378039241E+01   -6.4429192513569795E+00    5.6987142685291250E+00
Cs   -1.0551953140866761E+01    1.0473490821290023E+01   -1.4087905631475060E+01
Cs   -1.0717401278421873E+01    1.0695989888984050E+01   -5.1322429296616372E+00
Cs   -9.1877129434960683E+00    1.1578158469811331E+01    5.4366448575615847E+00
Cs    2.0012556788585292E-01   -1.8153686420538317E+01   -1.6996865728102708E+01
Cs    7.1957530415018234E-01   -1.7743393702335336E+01   -6.6114565921567436E+00
Cs   -2.8211379823867377E-01   -1.8465972564944604E+01    6.1600179936338497E+00
Cs   -1.3728313629128124E+00   -3.3584448379179372E+00   -1.6479067996560865E+01
Cs    2.6823304320993430E-01   -1.6279183406132520E+00   -3.8384281237784652E+00
Cs    2.5839709260433086E-01   -4.0897782936981937E+00    4.9184921630645109E+00
Cs   -6.0008228550789633E-01    1.0647019652511871E+01   -1.4479682152712964E+01
Cs    5.6712489388384846E-01    1.1818568016139761E+01   -5.1476538003164345E+00
Cs   -2.3636861138929474E-01    1.3184717548739108E+01    4.7621243114472529E+00
Cs    9.4994202511836807E+00   -1.8804222802948857E+01   -1.4893219565605918E+01
Cs    9.7683830715624396E+00   -1.6463274835275428E+01   -5.7931610385926193E+00
Cs    1.1070474311778943E+01   -1.9634011342214137E+01    5.9382858836678620E+00
Cs    9.9220088536384701E+00   -4.3750000310536326E+00   -1.5954249326678578E+01
Cs    1.0561864667023302E+01   -2.3755033929602725E+00   -3.8667096397823904E+00
Cs    1.0317658367201517E+01   -3.9721365591271272E+00    4.8331334521980489E+00
Cs    1.1072147225712875E+01    1.1489180690527624E+01   -1.4961705885055526E+01
Cs    1.0373940228892826E+01    1.1908500333309284E+01   -4.8270128666694996E+00
Cs    1.1096719608653322E+01    1.0134408031951770E+01    4.9476683961504380E+00
Cs   -5.4936503333837505E+00   -1.1567879617279921E+01   -9.5627690600597521E+00
Cs   -5.1809070036176577E+00   -1.0620799379204735E+01   -2.8767114332569652E-02
Cs   -4.7164585072019998E+00   -1.0188356254349385E+01    9.8239666017008762E+00
Cs   -5.6074300547944116E+00    4.0330780558720605E+00   -9.4849871894070557E+00
Cs   -5.3120741719291873E+00    2.8274478815149342E+00   -6.5951751521463609E-01
Cs   -5.1072718878882712E+00    3.2341401384734798E+00    1.0902629092049073E+01
Cs   -5.4983176879446880E+00    1.8337686799657831E+01   -9.9767744811632060E+00
Cs   -4.7246789848654691E+00    1.7541431843743208E+01    7.0068911647990650E-01
Cs   -5.0296138869103109E+00    1.8674082442170917E+01    1.0967932175226833E+01
Cs    5.4687671771688349E+00   -1.0759104416505336E+01   -9.6901420129151230E+00
Cs    4.6881528976220705E+00   -1.0571167786208933E+01    7.6983562338604450E-01
Cs    6.9529639349286221E+00   -1.1866656422608191E+01    9.6547795316287033E+00
Cs    5.1558523627692665E+00    4.9609061004387707E+00   -1.0281869398843892E+01
Cs    4.6907983870283418E+00    5.1462739082947353E+00   -1.1118890823866410E+00
Cs    3.8633641351704346E+00    3.6299833758113311E+00    9.0859201253156492E+00
Cs    5.6256468478493122E+00    1.8301404783579653E+01   -9.0995503393692783E+00
Cs    4.5110858619056042E+00    1.9048076009763530E+01    1.2806824835806521E-01
Cs    6.1193964651583856E+00    1.7974352681962827E+01    9.9922925308627857E+00
Cs    1.6774957593325269E+01   -1.0966062772785154E+01   -8.8584625076997234E+00
Cs    1.5841073074975268E+01   -9.8058147818509962E+00   -9.8693036217212826E-01
Cs    1.6460427553779130E+01   -1.1830909921607910E+01    8.6131088094989270E+00
Cs    1.4683297570146463E+01    1.9375557148837816E+00   -9.0774205806811175E+00
Cs    1.6156501377669528E+01    3.6435611638523504E+00   -9.9938072132033795E-01
Cs    1.5934329977104809E+01    2.8698187537293367E+00    9.9062242041921333E+00
Cs    1.6029903842873679E+01    1.7716820206585023E+01   -1.0166511354909439E+01
Cs    1.5497166382026343E+01    1.9717386217603181E+01   -1.1888868748689498E+00
Cs    1.7201548901746509E+01    1.7374965510281829E+01    9.6470804508622177E+00
Cs   -8.5639079455650666E+00   -1.0911580425547282E+01   -5.7809138377473372E+00
Cs   -9.6970238191490914E+00   -1.1697666306199212E+01    4.5549717913379117E+00
Cs   -1.1183264833790449E+01   -1.2462262723746168E+01    1.5329406079258961E+01
Cs   -9.9198131379557548E+00    2.5112070103347763E+00   -5.1856011108396824E+00
Cs   -9.9871055666043560E+00    3.3884182919848591E+00    5.0519828236209792E+00
Cs   -9.9706773700175901E+00    4.2475336535000539E+00    1.5126923158835787E+01
Cs   -1.1466589737926940E+01    1.7196112706610830E+01   -4.4128171876758548E+00
Cs   -1.0208666967632670E+01    1.9093483019596881E+01    4.8423601591466179E+00
Cs   -9.1348014568583604E+00    1.8078038490423619E+01    1.5464553830810063E+01
Cs   -4.9749286467928144E-01   -1.0923657176734880E+01   -6.9658845834961882E+00
Cs   -1.2176264086556950E-01   -1.0144440110198392E+01    5.5446725466580000E+00
Cs   -4.6102286515650093E-01   -1.1848090045118107E+01    1.3575492819556754E+01
Cs    4.1408785680751853E-01    6.4786532902020539E+00   -4.0948771827792658E+00
Cs   -8.0912027423064181E-01    7.1915315493556289E+00    5.4336216618132855E+00
Cs    6.2306944170526091E-01    3.5710769967448326E+00    1.5761026235821049E+01
Cs   -4.8669597458613889E-01    1.9120484166079169E+01   -5.2439278025790488E+00
Cs   -2.1940445114298812E-01    1.9502660212096465E+01    5.4488143305523238E+00
Cs    2.0186446010492531E-01    1.7983577469986589E+01    1.6255369246505239E+01
Cs    9.0767498195828846E+00   -1.0117647059845110E+01   -4.1356130618926850E+00
Cs    9.4191688821971002E+00   -1.0786976600617100E+01    4.1140828823191447E+00
Cs    9.2268110418402003E+00   -1.0789503313337596E+01    1.5271061535798207E+01
Cs    1.1231109791566334E+01    4.2418006821640555E+00   -5.2181229629774686E+00
Cs    1.1581841410645200E+01    3.6121027264939793E+00    4.7305833454207109E+00
Cs    1.1730278757988653E+01    3.1472089622362991E+00    1.6670776009678843E+01
Cs    1.0655021425549540E+01    1.8097507647688580E+01   -4.5728037770820738E+00
Cs    1.2084948160335520E+01    1.7638983239903666E+01    6.0747111010737882E+00
Cs    1.1138895305242519E+01    1.7735247310685860E+01    1.5191633059936841E+01
Cs   -1.7394120890286377E+01   -1.8258515904508723E+01   -1.1304419379218107E+01
Cs   -1.5059363659808731E+01   -1.8806767250944699E+01   -1.2239228191405173E-01
Cs   -1.4980487388912385E+01   -1.9136394245143642E+01    1.0994088831165492E+01
Cs   -1.6139388614365981E+01   -3.9704018021079861E+00   -1.1262746343586462E+01
Cs   -1.6185121198098177E+01   -2.7803520422825647E+00   -6.9253918305042322E-02
Cs   -1.3953232055871533E+01   -3.8612430518556389E+00    1.1147069952011497E+01
Cs   -1.5313549521910975E+01    1.1107382485554844E+01   -1.1110897783875451E+01
Cs   -1.6012675148345959E+01    1.2342860638084915E+01   -2.2338749602489449E-02
Cs   -1.4385955921048474E+01    1.0054341353516882E+01    9.8263359090931548E+00
Cs   -5.0756620464665616E+00   -1.9189515189494522E+01   -1.1183028875736749E+01
Cs   -5.1925290175887895E+00   -1.8710530073885050E+01   -1.2718095764819362E+00
Cs   -5.6589409311063896E+00   -1.9597925689546894E+01    8.8377146754164766E+00
Cs   -5.4360489866100599E+00   -3.6298639232128620E+00   -1.0925266387941063E+01
Cs   -3.6977861716947200E+00   -1.8314748198138102E+00    7.3497829955341065E-01
Cs   -4.7424182715717782E+00   -3.4008204563371294E+00    1.0025163234346886E+01
Cs   -4.7188106267299847E+00    9.6810232990214491E+00   -1.0081255127754041E+01
Cs   -5.9002652596302552E+00    1.2144072336804934E+01   -1.0312293800977672E+00
Cs   -4.9950512903947732E+00    1.1115775647921742E+01    1.0775669041215620E+01
Cs    3.8736019814992582E+00   -1.7586854735466037E+01   -1.2273579735927559E+01
Cs    4.4644956315055415E+00   -1.8156315608616076E+01   -9.8198809577488555E-01
Cs    5.9125406845805584E+00   -1.9028802714705577E+01    1.0135759424764023E+01
Cs    4.4130514759118968E+00   -3.2987718069780425E+00   -9.8875608229786103E+00
Cs    4.9959396246654215E+00   -2.9678633141690791E+00   -2.2777750628569315E-01
Cs    5.1220342648146140E+00   -3.8363461613064120E+00    9.5803948906374696E+00
Cs    5.6478377233909587E+00    1.2330220103112966E+01   -1.0737778290660875E+01
Cs    6.3781740444432788E+00    1.0968016859135471E+01   -1.0861542520164877E+00
Cs    5.7908940391852228E+00    9.2733013481975171E+00    1.0746757605544722E+01
Br   -1.3650184769064225E+01   -1.4867567884018625E+01   -1.4091503426676168E+01
Br   -1.2872366594015469E+01   -1.4928420009906240E+01   -3.3687621195769402E+00
Br   -1.3651768167009713E+01   -1.6666391734351862E+01    7.5544584557852579E+00
Br   -1.1599522610190638E+01    1.7215961525733900E+00   -1.1871974451663878E+01
Br   -1.3960807938766981E+01   -6.1699538642335494E-01   -1.9988496556314426E+00
Br   -1.3821318059801298E+01   -6.0138570157973381E-01    8.1573746716078954E+00
Br   -1.1922064603345525E+01    1.6134193933935386E+01   -1.2023301542004663E+01
Br   -1.3810402456215469E+01    1.5029584566839864E+01   -1.9801318904640886E+00
Br   -1.1718640600853400E+01    1.2009295898246149E+01    8.0889577947295859E+00
Br   -2.7378975371627825E+00   -1.4221411053960738E+01   -1.3550266319644766E+01
Br   -1.9209529712956559E+00   -1.3630818339865998E+01   -4.1173545210994442E+00
Br   -1.4176040067881381E+00   -1.4502883547912573E+01    6.0084177575378153E+00
Br   -2.1709391343728703E+00    2.7189266647464216E-01   -1.2854479788197997E+01
Br   -2.8413115485060789E+00    5.1542186225658204E-01   -1.9211320007255115E+00
Br   -2.2527453467103440E+00    2.1732124860239224E+00    6.8858668715142670E+00
Br   -1.4263743702209011E+00    1.4471167106512818E+01   -1.3486441989382971E+01
Br   -2.8276091284496379E+00    1.4457212048039313E+01   -1.9294621075681953E+00
Br   -2.8836256032478751E+00    1.4708262716349102E+01    7.7505789391813709E+00
Br    7.2966820807956898E+00   -1.3415622391000369E+01   -1.2891390182789429E+01
Br    6.3459224735934656E+00   -1.3050559274116116E+01   -1.1301154347998110E+00
Br    7.5619014425614290E+00   -1.6318911514001584E+01    8.6841199908773330E+00
Br    7.4383222356985934E+00    7.1069503380916735E-02   -1.1517657351777054E+01
Br    7.1945291148921910E+00    1.7414142616191317E+00   -1.2996668640094173E+00
Br    6.0153519422706774E+00   -1.6944549734723904E-01    8.1387271532628791E+00
Br    7.1663696269872510E+00    1.5325725869521156E+01   -1.1359287972450293E+01
Br    6.3823779214525524E+00    1.5178268805682359E+01   -2.4917079044476407E+00
Br    8.2861672719961330E+00    1.3914334809294258E+01    7.6002306355439133E+00
Br   -1.1836581974536175E+01   -1.5059439445823104E+01   -7.6959932785750054E+00
Br   -1.2773402728972792E+01   -1.4173526095719955E+01    3.9662856488931060E+00
Br   -1.4774366812762896E+01   -1.2583360802876459E+01    1.2574184816100159E+01
Br   -1.3177154902350516E+01   -1.5983946829224496E-01   -8.2961475656797479E+00
Br   -1.2174399995370475E+01   -2.3757136761403115E+00    3.7824246752048118E+00
Br   -1.2731925725140886E+01    2.8863662340973351E-01    1.2335265559142908E+01
Br   -1.4201015559518934E+01    1.4151215034359733E+01   -8.3977437412315918E+00
Br   -1.2856759387729928E+01    1.4213844152977618E+01    3.0626373263536006E+00
Br   -1.3155395280983948E+01    1.4203349523805379E+01    1.1953275441003894E+01
Br   -2.0665508377211226E+00   -1.4239024783471011E+01   -8.2758326339461110E+00
Br   -1.9523496432485039E+00   -1.2309632642466527E+01    2.3346943317643136E+00
Br   -2.4036990040165045E+00   -1.3947898677124531E+01    1.0280375359013270E+01
Br   -3.6443406219004366E+00    1.0387187038921686E+00   -7.7004460724421833E+00
Br   -8.9722376847308227E-01   -3.6920724720946785E-01    3.1159937545530094E+00
Br   -4.8454422445816885E+00    3.5426327605609659E-01    1.2570598249560911E+01
Br   -2.2809697703493770E+00    1.6068491831235278E+01   -6.3603277680148826E+00
Br   -2.9645424006231975E+00    1.6365107311828247E+01    3.8850987060779012E+00
Br   -4.0847335525999267E+00    1.4418253528184698E+01    1.2526596920106137E+01
Br    8.1729715720291090E+00   -1.3407577146356527E+01   -8.3735178224265159E+00
Br    7.7918004884112975E+00   -1.3977077794712493E+01    2.9434837384475019E+00
Br    7.8535320257325694E+00   -1.4678451552893007E+01    1.2747401851257179E+01
Br    7.5550436321799941E+00    6.1803737321606134E-01   -7.4909183336666203E+00
Br    8.0556095227059572E+00    4.3669380436583399E-01    3.9144201171882118E+00
Br    7.5370325332881531E+00    2.0234648125408650E+00    1.3934106965601863E+01