 # Version information for this restart file 
 # current date 2020-12-23 15:02:13.115
 # current working dir /Users/bvanbeek/Downloads/MM_MD_workdir/md
 # Program compiled at                             Fri Apr 19 11:24:34 CEST 2019
 # Program compiled on                                             192.168.1.124
 # Program compiled for                           Darwin-IntelMacintosh-gfortran
 # Source code revision number                                         svn:18464
 &GLOBAL
   PRINT_LEVEL  LOW
   PROJECT_NAME cp2k
   RUN_TYPE  MD
 &END GLOBAL
 &MOTION
   &MD
     ENSEMBLE  NPT_F
     STEPS  10000
     TIMESTEP     2.4999999999999996E+00
     STEP_START_VAL  9000
     TIME_START_VAL     2.2499999999996515E+04
     ECONS_START_VAL    -5.5495911227455137E+00
     TEMPERATURE     3.0000000000000000E+02
     &BAROSTAT
       PRESSURE     1.0100000000000000E+00
       TIMECON     4.9999999999999994E+02
       &VELOCITY
             7.3002629797063273E-07    1.6584267430014088E-06    2.5376617380919050E-06    1.6584267430014090E-06 \
            -1.1047136408965684E-06   -3.2552752751086299E-07    2.5376617380919041E-06   -3.2552752751089020E-07    2.1111545641869687E-06
       &END VELOCITY
       &MASS
             2.1920353963970435E+08    2.1920353963970435E+08    2.1920353963970435E+08    2.1920353963970435E+08 \
             2.1920353963970435E+08    2.1920353963970435E+08    2.1920353963970435E+08    2.1920353963970435E+08    2.1920353963970435E+08
       &END MASS
       &THERMOSTAT
         TYPE  CSVR
         &CSVR
           TIMECON     9.6755373060191392E+00
           &THERMOSTAT_ENERGY
                 3.8720323161121223E-01
           &END THERMOSTAT_ENERGY
           &RNG_INIT
Wiener process for Thermostat # 1        1 F T F  -2.1495855458191717E+00        3971798963.0        2476724845.0        3792017819.0        3980585138.0         658598962.0        4092120584.0             12345.0             12345.0             12345.0             12345.0             12345.0             12345.0             12345.0             12345.0             12345.0             12345.0             12345.0             12345.0
           &END RNG_INIT
         &END CSVR
       &END THERMOSTAT
     &END BAROSTAT
     &THERMOSTAT
       TYPE  CSVR
       &CSVR
         TIMECON     4.9999999999999994E+02
         &THERMOSTAT_ENERGY
              -3.7634727880349481E+00
         &END THERMOSTAT_ENERGY
         &RNG_INIT
Wiener process for Thermostat # 1        1 F T F   1.0967540175844821E+00        2526448616.0        2806321301.0        2500573378.0        3391129743.0        3853335946.0        2054900138.0             12345.0             12345.0             12345.0             12345.0             12345.0             12345.0             12345.0             12345.0             12345.0             12345.0             12345.0             12345.0
         &END RNG_INIT
       &END CSVR
       &PRINT
         &TEMPERATURE  ON
           FILENAME 
           &EACH
             MD  10
           &END EACH
         &END TEMPERATURE
       &END PRINT
     &END THERMOSTAT
     &AVERAGES  T
       &RESTART_AVERAGES
         ITIMES_START  1
         AVECPU     2.9955143111240496E-02
         AVEHUGONIOT     0.0000000000000000E+00
         AVETEMP_BARO     8.4470466522210700E+02
         AVEPOT    -4.2914499769331913E+00
         AVEKIN     6.8015180144451215E-01
         AVETEMP     2.6564588203053955E+02
         AVEKIN_QM     0.0000000000000000E+00
         AVETEMP_QM     0.0000000000000000E+00
         AVEVOL     4.6051210088412434E+07
         AVECELL_A     3.4375549311408372E+02
         AVECELL_B     3.5522006050920078E+02
         AVECELL_C     1.7793290898084086E+02
         AVEALPHA     7.2055443409351810E+01
         AVEBETA     1.1053884854534587E+02
         AVEGAMMA     1.0669028635324581E+02
         AVE_ECONS    -1.4522157871426673E+00
         AVE_PRESS     3.0577737890558612E+00
         AVE_PXX     2.6319157992322109E+00
       &END RESTART_AVERAGES
     &END AVERAGES
   &END MD
   &PRINT
     &TRAJECTORY  ON
       &EACH
         MD  10
       &END EACH
     &END TRAJECTORY
     &CELL  ON
       FILENAME 
       &EACH
         MD  10
       &END EACH
     &END CELL
     &FORCES  ON
       FILENAME 
       &EACH
         MD  10
       &END EACH
     &END FORCES
   &END PRINT
 &END MOTION
 &FORCE_EVAL
   METHOD  FIST
   STRESS_TENSOR  ANALYTICAL
   &MM
     &FORCEFIELD
       VDW_SCALE14     1.0000000000000000E+00
       EI_SCALE14     1.0000000000000000E+00
       SHIFT_CUTOFF  T
       DO_NONBONDED  T
       IGNORE_MISSING_CRITICAL_PARAMS  T
       &SPLINE
         R0_NB     1.0000000000000001E-01
       &END SPLINE
       &NONBONDED
         &LENNARD-JONES
           ATOMS Cs Cs
           EPSILON     2.2644852172126850E+01
           SIGMA     5.8500000000000005E+00
         &END LENNARD-JONES
         &LENNARD-JONES
           ATOMS Cs Pb
           EPSILON     8.6920055954630953E+01
           SIGMA     5.1000000000000005E+00
         &END LENNARD-JONES
         &LENNARD-JONES
           ATOMS Br Pb
           EPSILON     2.0528187276773045E+02
           SIGMA     2.9000000000000004E+00
         &END LENNARD-JONES
         &LENNARD-JONES
           ATOMS Br Cs
           EPSILON     5.3481070753900497E+01
           SIGMA     3.8500000000000005E+00
         &END LENNARD-JONES
         &LENNARD-JONES
           ATOMS Br Br
           EPSILON     1.2630795322675199E+02
           SIGMA     4.2599999999999998E+00
         &END LENNARD-JONES
         &LENNARD-JONES
           ATOMS Pb Pb
           EPSILON     3.3363415533600221E+02
           SIGMA     5.9800000000000004E+00
         &END LENNARD-JONES
       &END NONBONDED
       &CHARGE
         ATOM Cs
         CHARGE     2.0000000000000001E-01
       &END CHARGE
       &CHARGE
         ATOM Pb
         CHARGE     4.0000000000000002E-01
       &END CHARGE
       &CHARGE
         ATOM Br
         CHARGE    -2.0000000000000001E-01
       &END CHARGE
     &END FORCEFIELD
     &POISSON
       PERIODIC  XYZ
       &EWALD
         EWALD_TYPE  SPME
         GMAX  22
         O_SPLINE  4
       &END EWALD
     &END POISSON
     &PRINT
       &FF_INFO  LOW
         SPLINE_INFO  F
         SPLINE_DATA  F
       &END FF_INFO
     &END PRINT
   &END MM
   &SUBSYS
     &CELL
       A     4.4478691526944874E+02   -1.5553563173182181E+02   -1.0224670044791014E+02
       B    -1.8208799801202008E+02    4.3215462719683586E+02    1.0324110828320669E+02
       C    -1.1040342512390284E+02    8.3945634128348942E+01    1.7627903791353822E+02
       PERIODIC  XYZ
       MULTIPLE_UNIT_CELL  1 1 1
     &END CELL
     &COORD
Br   -2.2527128535952980E+02    2.2410363613465472E+02    1.1359063485370126E+02
Br   -2.6406825360641790E+02    2.5163545531924998E+02    1.6071722868911314E+02
Br    4.4212176831100038E+01   -1.5157646745505647E+02   -5.1030766918359085E+01
Br   -7.1860394347427984E+01   -2.7362657853595316E+01    3.2866860098545786E+01
Br    8.0174028575903037E+01   -1.1212322871318810E+02   -1.4224166451569646E+01
Br    3.8003171816410379E+01   -1.9384778418076859E+01   -5.6761030947484812E+01
Br   -2.3564781937585971E-01    4.2467786467273516E+00   -1.9341919250191371E+01
Br   -1.2667184877144852E+01    1.3055721844604115E+01    4.2379524908083361E+01
Br   -7.2474052137920182E+01    1.3587730570368328E+02    4.1007269157810320E+01
Br   -7.6136593066332622E+01    1.6615031414529165E+02    7.3200684343914446E+01
Br   -9.6898318147977122E+01    1.7166589882357860E+02    9.3805296508323650E+01
Br    1.8683201285221571E+02   -1.7907386785472741E+02   -1.2284528270393069E+02
Br    1.4434073317958718E+02   -7.3539199457924468E+01   -2.6460164341776238E+01
Br    1.9457311847346699E+02   -1.3531741623855737E+02   -2.6096090203132846E+01
Br    1.5226482562548455E+02   -8.8335812329229356E+01   -3.9255239047263110E+01
Br    1.3105619938316639E+02   -3.8124594133475782E+01   -2.3834134952369194E+01
Br    6.2695222271152410E+01    1.4214614872101039E+01   -1.5940913696921704E+01
Br    7.5475365032156233E+01    1.6315393281383609E+02   -4.5639299393315467E+00
Br    1.5395463000559735E+02    1.3652583710084608E+02   -1.6946745124151157E+01
Br    1.7664388660157197E+01    1.1013458348515361E+02    3.4651738330401287E+01
Pb   -1.6581689244073073E+02   -6.4202067819790798E+01   -4.8232867432557363E+01
Pb   -9.1203730294882732E+01   -1.0636053993314958E+02    1.9062598660408611E+01
Pb   -2.0725672501130973E+02   -1.7519734016262106E+01    6.8285655437496089E+01
Pb   -6.1468046445019048E+01   -1.2961164278494687E+02   -1.1612943873662242E+02
Pb   -2.3111759251709049E+02    8.5694892521188535E+01    2.9964028627728791E+01
Pb   -1.5697534315854614E+02    3.2514633456623869E+01    4.0179046520667526E+01
Pb   -3.0052220765085968E+02    1.4606810523502449E+02    2.0241854982197114E+00
Pb   -2.4659356229130356E+02    2.1703287320006086E+02    4.4519052161200612E+01
Pb   -2.3171171449790705E+02    2.0007581561023426E+02    9.4000520100459212E+01
Pb    4.2835413333458796E+01   -1.5974080807379880E+02   -8.3016734782096023E+01
Pb   -3.5787486699966204E+00   -1.2342521707808365E+02   -2.1904219396711913E+01
Pb   -7.1285494408877582E+01   -9.6535761175068060E+01    6.7660323133380906E+00
Pb    4.2885742786092933E+01   -4.5609096135665176E+01   -1.2568143872163209E+02
Pb   -4.5813739109513811E+01    2.7435108322085579E+01   -8.9028451489864562E+00
Pb   -1.5308142417742607E+02    5.7246528684302554E+01    3.6358919667179244E+01
Pb   -9.5885797335713136E+01    1.2122104416076778E+02   -1.0025734986440600E+01
Pb   -1.1914337058127872E+02    2.5976347996890422E+02    4.9886849101728998E+01
Pb   -2.1189397923290772E+02    2.4612075183607601E+02    1.2648221423349112E+02
Pb    1.9819346988485989E+02   -2.6490126689570360E+02   -1.7372386075794302E+02
Pb    1.6566899323869228E+02   -1.9573124904890676E+02   -9.4947518063530936E+01
Pb    1.7926294052933537E+02   -1.6198776268778110E+02   -4.1445705821706852E+01
Pb    1.1868333032666764E+02   -5.8096327339341009E+01   -4.2799134589887764E+01
Pb    1.5542154449674726E+02   -7.0097069014262402E+01   -4.8140357195515307E+01
Pb   -8.0161675887158204E+00    1.3149503686382058E+01    6.3300065246424282E+00
Pb    6.1818266893614044E+01    1.1870636099938847E+02   -5.5010791895448556E+01
Pb    9.1945757467866596E+00    1.3834219507795569E+02   -2.5116800894474192E+01
Pb    1.0360949254125881E+01    1.1370295026370515E+02    3.4612777514385613E+01
Pb   -1.3403297380349613E+02   -1.0329135143879824E+02   -4.1998914580516441E+01
Pb   -8.8736184909805445E+01   -1.1260206088661580E+02   -1.6886136116469057E+00
Pb   -9.3227230796111897E+01   -5.9575389315447396E+01    7.9328748237938555E+01
Pb   -1.3802058438401886E+02    7.2204654838694191E+00   -4.0147242611024261E+01
Pb   -1.2857166094489784E+02    3.9434755426119729E+01    2.5395391080304421E+01
Pb   -1.0562891967227991E+02   -1.9984119303089841E+01    5.4396829428212122E+01
Pb   -1.4543342372032436E+02    1.6061170703440487E+02   -1.4708683023790062E+01
Pb   -2.2112412338222526E+02    2.1940574580074218E+02    1.1128153378719679E+02
Pb   -2.6280114143127031E+02    2.4027668471717959E+02    1.0720049390414923E+02
Pb    5.8971955439680933E+01   -1.5640915908704349E+02   -6.2386275145367378E+01
Pb    1.8749369352372975E+02   -1.7549414937579917E+02   -6.5480849890971385E+01
Pb    9.7828858663956169E+01   -1.4210756271304086E+02    5.3089547902650960E+00
Pb    2.1877617617116350E+01   -1.1885453271769191E+00   -7.9172723439565985E+01
Pb    2.8895863056778719E+00    9.8962721372011071E+00   -1.6602213844667656E+01
Pb   -1.5133925555278688E+01    1.4335365880990357E+01    4.3197829917442981E+01
Pb   -7.3889868773624087E+01    1.3976868372536413E+02    3.7581727369881605E+01
Pb    4.0887411678251411E+00    1.4672451474869166E+02    4.2549579068549200E+01
Pb   -9.5002495874005021E+01    1.6839847314662367E+02    9.3417357152249039E+01
Pb    1.7609117829247052E+02   -1.9307047824275446E+02   -1.0398692834981476E+02
Pb    2.2789330062540216E+02   -1.7039478516691875E+02   -3.8694489696936920E+01
Pb    1.8123613321248843E+02   -1.6350477317740283E+02   -2.8535403948258296E+01
Pb    1.8345067101369875E+02   -8.6001630085833440E+01   -7.6187345351320275E+01
Pb    1.8698854904852479E+02   -7.9099683436944090E+01   -5.3057274008956846E+01
Pb    2.2282920147692575E+01    1.5817044092930999E+00    2.8779898364456805E+01
Pb    6.2595238917413816E+01    1.1377854819844859E+02   -4.6969081754195777E+01
Pb    1.8863175140321235E+02    5.5403918581602120E+01   -2.9617782599480890E+01
Pb   -3.6903018819553879E-01    1.2109846937587363E+02    3.1446988612837846E+01
Pb   -9.3874887263875095E+01   -1.7615721767608977E+02   -1.0186976066102940E+02
Pb   -1.2189485124431644E+02   -1.1372074406519182E+02   -8.4006359249150633E-02
Pb   -7.5183320155602004E+01   -2.0435950942568260E+02    2.9766199251939486E+01
Pb   -1.3704548611586375E+02   -5.2030084117944213E+01   -8.5485397219258743E+01
Pb   -2.2599566659819590E+02    3.3250615542240524E+01    1.7994579334819534E+01
Pb   -1.8534202209781606E+02   -9.9166272762435383E+00    4.1701270698722503E+01
Pb   -3.2002449947909736E+02    1.3040157290913118E+02    6.8844503923455873E+00
Pb   -2.6181532366407629E+02    1.2301154881906025E+02    8.0037788765865599E+01
Pb   -2.5493765233035384E+02    1.6152310144629951E+02    7.3349001287280259E+01
Pb    5.3170408832413351E+01   -2.3205609503903597E+02   -1.0557349636737236E+02
Pb    7.2611193775685567E+00   -1.5612177631297800E+02   -7.3119210366630853E+01
Pb   -4.6651060385494752E+01   -1.4004812228442688E+02   -1.7794762330564598E-01
Pb   -2.3412180993653951E+01   -9.4711694182149202E+01   -9.3022374149632725E+01
Pb   -4.6735663421284684E+01   -4.7693738342166093E+01   -2.8245169099756161E+01
Pb   -6.5508789212158391E+01   -3.5096242106836186E+01    1.8679647758607071E+01
Pb   -4.1831490553678243E+01    5.9757958682006034E+01   -3.9285942275459284E+01
Pb   -4.2955182317188495E+01    3.5282318244059844E+01   -1.4812516922862685E+01
Pb   -1.2635350464848042E+02    1.6707872098728546E+02    1.1559205814909956E+02
Pb    2.2638985089980065E+02   -3.0424659799871921E+02   -1.7394054246518945E+02
Pb    5.3106444288237697E+01   -2.0382643299977832E+02   -6.1816609840584924E+01
Pb    1.7871628565176363E+02   -1.8365474229565910E+02   -4.0923196683599976E+01
Pb    1.1753702005170379E+02   -8.0732832694729979E+01   -1.4707311406782949E+02
Pb    6.6034232568126342E+01   -5.3992316715755557E+01   -3.5582168067977847E+01
Pb    1.3100939910896602E+02   -9.5158499787966406E+01   -2.5824595551925949E+01
Pb    1.4074210017063609E+02   -1.3977337437025684E+01   -9.0380941043088129E+01
Pb    9.0259502525387404E+01    9.4490626026082278E+00   -1.0212476908994347E+01
Pb    5.8198854493709405E+01    6.5699384924417794E+00   -1.1946326800375251E+01
Pb   -1.0711199023911034E+02   -9.8641784559006339E+01   -7.1472001723064977E+01
Pb   -6.6240402742190589E+00   -1.7156808102715570E+02   -3.9859572965554911E+01
Pb   -8.9145371247395758E+01   -1.7506728696163785E+02    6.7987780821300149E+01
Pb   -5.5993015649884100E+01   -8.2846472810469749E+01   -8.8774483604296307E+01
Pb   -1.1395099928022833E+02   -5.2342973333938097E+01   -1.1318618848155651E+01
Pb   -1.5346382965396771E+02   -2.2399288797808541E+01    8.4477590985964952E+01
Pb   -4.6830718937630913E+01    7.7380498356905051E+01   -1.9628278699055702E+01
Pb   -1.6283726969055334E+02    9.6869581062029667E+01    5.5664785238194945E+01
Pb   -1.8189810035010316E+02    1.4677020863884488E+02    1.3999320272703440E+02
Pb    2.9881331683240017E+01   -1.6180430481045479E+02   -8.9625587043644487E+01
Pb    4.8873073717004040E+01   -2.1502653621809208E+02   -6.1526455731950733E+01
Pb    8.9755980532504694E+01   -2.3422335851696874E+02    1.9876887692918984E+01
Pb    1.4370103626774899E+01   -1.2944813480257625E+02   -1.0210004223775802E+02
Pb   -3.7310089650516254E+01   -2.5407178869680891E+01    2.0352192003732448E+01
Pb    5.6641650001326433E+01   -8.8483349543483953E+01    9.6658494070821241E+00
Pb    4.6261806759738398E+01    6.2905302516995938E+01   -5.4074515708392362E+01
Pb    2.5981017986683433E+01   -7.2193892313177015E+00    1.9608493480033637E+00
Pb   -8.7911474818603395E+01    1.2857231381497880E+02    8.5928061835891981E+01
Pb    2.6255182820819601E+02   -2.8794042318764230E+02   -1.2285966760518998E+02
Pb    1.7129612987261191E+02   -2.6760931500032058E+02   -3.7680872239602600E+01
Pb    1.8845490998472476E+02   -2.6153406999364563E+02   -2.3314088103176172E+01
Pb    2.4184914832910613E+02   -1.2896906430777753E+02   -1.0321169309430360E+02
Pb    1.4696215320505783E+02   -6.7725951130679903E+01   -3.3614362298506322E+01
Pb    8.7458119804677864E+01   -5.3325084987090435E+01    3.8165969804824378E+01
Pb    1.2501867459537108E+02   -6.1804910973736462E+01   -6.1622620280868688E+01
Pb    1.2794487490142932E+02   -3.5939484756288245E+01   -3.4033849729681990E+01
Pb    9.0496796488012059E+00    1.0824970866839975E+02    8.2920932625206206E+01
Cs   -1.6731102668304636E+01   -2.0958853169078930E+02   -1.0855624329798340E+02
Cs   -4.8178968039267929E+01   -8.5710533880472383E+01   -1.4140259538158675E+01
Cs   -1.2898418315334277E+02   -1.3662671140692229E+01    7.0684050721730571E+01
Cs   -1.6091398229070052E+01    2.3872914990305805E+01   -7.1909175075007681E+01
Cs   -1.2751989019319645E+01   -5.3395248646078215E+01   -6.1763564183018850E+01
Cs   -1.4338168052568952E+02   -1.0095820637199136E+01    5.0095256892000705E+01
Cs   -8.4322761903249258E+01    4.3664196333615223E+01   -3.9791533461949925E+01
Cs   -1.3220475218603866E+02    1.2332880937636955E+02   -2.8682684888053647E+00
Cs   -2.1908024703491677E+02    1.8873953171695439E+02    3.7992095745971419E+01
Cs    1.9059864237861987E+02   -2.8783661944528723E+02   -1.5075550675780775E+02
Cs    2.2620045732764211E+00   -1.6769870227882726E+02   -4.9333292388978805E+01
Cs    1.5594009270585443E+02   -1.8110976888797185E+02   -5.6373320342606071E+01
Cs    6.2218262978697879E+01   -3.7525531903708675E+01   -8.2221609585273654E+01
Cs   -1.5859959448056188E+01   -2.9951280901925936E+00   -3.9985022925529097E+00
Cs   -1.8297213120390090E+01    1.7478372031908858E+01    6.7228275095561102E+01
Cs    1.2570424080265228E+01    7.4603171252710311E+01   -7.9343334278683201E+01
Cs   -2.2217551073587714E+01    1.2906076240992221E+02    1.3755092434299353E+01
Cs   -1.0082058206956187E+02    1.1445330404543981E+02    5.2296651710045865E+01
Cs    2.5266448676336663E+02   -2.8223106164931096E+02   -1.9511023613281600E+02
Cs    1.6398446254382293E+02   -2.2758034482646843E+02   -1.2128242429110030E+02
Cs    2.1785846232329862E+02   -3.1828015067918938E+02   -9.8244110269073531E+01
Cs    1.5720970229902861E+02   -7.1638803898085769E+01   -8.8021131805330512E+01
Cs    2.0520980474986206E+02   -1.0521379935764594E+02   -5.8089136887959533E+01
Cs    1.3963174240396671E+02   -8.1015959404945988E+01   -4.2592535207048492E+01
Cs    1.2312316192653404E+02    3.7971455113057466E+01    4.9273736470300156E+00
Cs    1.5315957759948023E+02    3.6568340742375881E+01    6.0556292068234441E+01
Cs    2.0182617990591318E+01    1.1406150821520150E+02    4.5546095095027326E+01
Cs    1.5586682702250325E+01   -7.6598897262299147E+01   -8.3385295945921541E+01
Cs    6.8070391102294963E+01   -6.3614836220435627E+01   -3.0165050601555865E+01
Cs   -5.0251087531839374E+01   -1.0467659835562469E+02    7.3489513260594876E+01
Cs   -1.1928222736582791E+02    1.6481172159597573E+01   -1.1966447967501468E+01
Cs   -1.1404909754049201E+02    1.4303700831533976E+02    7.5624915277883318E+01
Cs   -1.1459698602618533E+02    2.9363712135973795E+01    6.4276619758545266E+01
Cs   -1.1914962665525140E+02    2.1248247955647247E+02    1.0934567016858999E+01
Cs   -1.0276698712982544E+02    1.9967980315462583E+02    1.0210923266463359E+02
Cs   -1.5197598204777105E+02    2.9818888074344227E+02    1.3035104498734961E+02
Cs    2.1788461743288912E+02   -1.2580268558893462E+02   -9.8489055896330157E+01
Cs    1.3672849686891470E+02   -7.3979191562093675E+01   -4.1273850167318443E+01
Cs    7.7284700093801149E+01   -1.2164544264566373E+02   -1.4947660511647822E+01
Cs    6.7091552204285520E+01    5.0075824110484874E+01   -5.2730397475149893E+01
Cs    8.0833767304831696E+01   -5.1188275149288700E+01   -2.8182588409364246E+01
Cs   -2.1827763211767106E+01    8.9941113349711316E+01    5.0686144925069598E+01
Cs   -3.6140734619531432E+00    1.5420328492594143E+02   -3.3818073609163740E+01
Cs    4.2787447517243343E+01    1.5949304537867010E+02   -3.9896684549946947E+01
Cs   -1.7784005697355415E+01    2.2790062181806323E+02    5.7005429004730090E+01
Cs    2.6070160009938485E+02   -1.2534124222597309E+02   -9.2070048577143041E+01
Cs    3.4275867683865073E+02   -2.1314954777813642E+02   -1.3403893910040620E+02
Cs    1.5018559344110662E+02   -1.1186031926380143E+02    2.4320955471450667E+01
Cs    2.4483798362951677E+02   -1.3999232657926277E+02   -9.6026327232650743E+01
Cs    2.2161092886353813E+02   -8.1671268565247672E+01   -1.0225535425634253E+02
Cs    2.7812975088359929E+02   -8.3684608111368846E+01   -3.0016412111960173E+00
Cs    1.5474397538580908E+02    6.8631061389020431E+01   -5.2728770240368334E+01
Cs    1.6332539745433550E+02    1.1949355984599296E+02   -1.4122654475180342E+01
Cs    1.5869884422133046E+02    9.9302675488354495E+01    3.7470236773268304E+01
Cs   -3.6217462027518536E+01   -9.6060591212924123E+01   -9.3496954402650090E+01
Cs   -1.2856068568604064E+02   -2.1692875142415378E+01   -8.0717469175852017E+00
Cs   -1.6839432214119779E+02    6.6195470163387418E+00    1.0494559480733997E+02
Cs   -6.1673739715270209E+01    5.7386452312832787E+01   -1.5075933846909917E+00
Cs   -1.9090172361761512E+02    6.5504549443506434E+01    7.1908004781556745E+00
Cs   -1.3258705064379711E+02    7.5574545672816242E+00    9.7876246949032179E+01
Cs   -1.7220491879523985E+02    2.5422417941724220E+02    3.0522200282753225E+01
Cs   -2.1597716474792304E+02    2.2891738833573768E+02    9.4359034141204972E+01
Cs   -3.9156968801255545E+02    2.4459312091812984E+02    1.6622252928567204E+02
Cs    8.6625832644270858E+01   -7.9773312907407316E+01   -1.2765996912399243E+02
Cs    5.2099985839442837E+00   -7.0916730994988143E+01    5.3516940563371804E+00
Cs    4.2584105958949301E+01   -3.5735715436199442E+01    2.5356377474092778E+01
Cs    1.7288804393501291E+01   -1.0571607399275045E+01   -4.5759415206805237E+01
Cs   -2.0360869063599800E+00    3.2372209441861443E+01    1.6197035044414456E+01
Cs   -7.8752391241646379E+01    6.9697110531245741E+01    7.0696415992947820E+01
Cs   -6.6886938896724502E+01    1.5112219309332835E+02    3.6338978638684203E+01
Cs   -4.1827409498464810E+01    1.4642115880185082E+02    5.5620946330206344E+01
Cs   -1.5500529970988495E+02    1.8089385997719671E+02    1.6716806587800909E+02
Cs    1.8854091124656213E+02   -1.8007351014184289E+02   -1.0358004169885761E+02
Cs    2.2197355757809547E+02   -1.4003027079747767E+02   -3.3275030501673484E+01
Cs    1.8924343112284495E+02   -1.1915084332552404E+02    1.5651000399924035E+01
Cs    2.1227033420964369E+02   -5.6837909980368536E+01   -3.9876570487850650E+01
Cs    2.3219270327287184E+01    1.9657915632017421E+01    3.7614032244736642E+01
Cs    2.1911533135878013E+01    7.8870789261973727E+01    7.5423768700504297E+01
Cs    1.6071831331957785E+02    1.1834485839837110E+02   -1.9047145031008892E+01
Cs   -8.0680170184183684E+00    1.6731446014291453E+02    4.2021495794886398E+01
Cs    1.4140565517497237E+01    1.8055605505597637E+02    8.5458557983627770E+01
Cs   -1.3756905029504438E+02   -1.1733605358985049E+02   -4.8982012478075951E+01
Cs   -7.5631845041994652E+01   -1.5826281310003492E+02    6.8567577368905120E+01
Cs   -2.4178702617298393E+02    1.3302072376255627E+01    1.0550132501074751E+02
Cs   -2.2925581999686867E+02    1.5655468750455288E+01   -4.9354478793768173E+01
Cs   -2.1343825447558928E+02    4.5505970890882026E+01    6.0724979475972489E+01
Cs   -1.7953478306377767E+02    1.0913301864145607E+01    8.1366892387639140E+01
Cs   -2.1099545308622334E+02    2.2050543097234703E+02    5.1105976094563140E+01
Cs   -1.4906937683207227E+02    2.4234392581068843E+02    5.0047081057561591E+01
Cs   -2.0414080255197786E+02    1.6953228508581412E+02    1.4099466223111639E+02
Cs    1.8199329713654528E+01   -1.4031309591612666E+02   -6.6069526132125020E+01
Cs   -4.6379675875368804E+01   -1.5004789224565368E+02   -3.3487534470219529E+01
Cs    4.0530294001310786E+01   -1.7482593986832975E+02   -2.5826741540972879E+01
Cs    2.0259319446703167E+01   -4.7482535972544937E+01   -2.1441699122738687E+01
Cs   -7.0895371057472374E+01   -3.8372822410778952E+01   -1.8269403866482012E+00
Cs   -6.0117149702202802E+01   -6.0414150175496729E+01   -2.5220520943635858E+00
Cs    1.8044591806360479E+01    6.0132752613527508E+01   -4.7502570306506946E+01
Cs   -3.1781248834228879E+01    7.8385518306263961E+01   -2.1692001310152193E+01
Cs   -1.4820834580606356E+02    2.3264651267860282E+02    9.1433716908638146E+01
Cs    1.1483918818911900E+02   -2.4562070220960265E+02   -1.0157046894367066E+02
Cs    1.5961998608574515E+02   -1.7093613681067035E+02   -7.3028891653049300E+01
Cs    1.4857023885496395E+02   -1.5295809817166645E+02   -1.5612217036423326E+01
Cs    1.0564185315541182E+02   -9.1584553250878827E+01   -1.1537535778498739E+02
Cs    3.7695065450843515E+01   -5.4818861383383975E+01   -2.7423747846698316E+01
Cs    5.7319954700414035E+00    1.4625531303088762E+01    2.0289276884368736E+01
Cs    9.6093166945790131E+01    3.9358397861063537E+01   -7.1015898631517885E+01
Cs    5.3570245099466959E+01    4.2769947801505189E+01   -8.9416615407575204E+00
Cs   -3.6262760195604535E+01    1.8539596692947333E+02    1.0754829349762910E+02
Br   -1.1391197755079988E+02   -1.3123064484174128E+02   -5.2503227060698912E+01
Br   -2.0181866448223096E+02    9.9532515690946060E+00    4.5031937971201302E+01
Br   -2.0969169742893507E+02   -1.7655271212446195E+01    7.0308324979649768E+01
Br   -1.3615591676728968E+02    4.4545594620991826E+00   -4.3558488034780524E+01
Br   -1.9429433775444397E+02    6.7633727260278050E+01    1.6435948945400828E+01
Br   -1.6633308805076607E+02    1.4074061340922409E+01    3.1853985525122098E+01
Br   -1.1444994973832780E+02    1.3994031259033085E+02   -1.1471171272243994E+00
Br   -2.3056461467154529E+02    2.5716688514012094E+02    8.0740444288343639E+01
Br   -2.6323617480647994E+02    2.5425775878350669E+02    1.2012810356610245E+02
Br   -2.5293938902998203E+01   -9.8716809272741102E+01   -8.8834427356248014E+01
Br   -2.3834094464418509E+01   -9.1188797771295384E+01   -3.7616172476436880E+01
Br   -6.6115287120603867E+01   -6.6679080166965051E+01   -8.9340116929216806E-01
Br    8.6228122352652605E+01   -8.5173080443093284E+01   -1.2317458011758468E+02
Br   -7.8318558100612856E+00    1.8310427106129211E+01    6.6508820480481265E+00
Br   -2.3579210121562571E+01    1.9893740439445882E+01    4.8559194782099738E+01
Br   -8.5424649278317958E+01    1.1341119106348329E+02   -7.0139198526712025E+00
Br    2.9917596947508458E+00    1.5157648220760947E+02    3.1208012067514474E+01
Br   -1.6407561967722157E+02    2.4268354342485742E+02    9.2340217462798307E+01
Br    2.2188378723485818E+02   -1.2348946621600548E+02   -1.0424225577001756E+02
Br    1.6442371512614861E+02   -1.8122941152771358E+02   -4.2992477099058164E+01
Br    1.5888888614243101E+02   -1.5617139985715974E+02   -2.9949568024369654E+01
Br    1.9890657198611129E+02   -6.1965993306666064E+01   -6.4217888024621047E+01
Br    1.4889941956563672E+02   -5.0932113261124798E+01   -7.8562153940213804E+01
Br    1.7389363223805073E+01    1.3046860563675680E+00    2.1097854181427543E+01
Br    6.2583158640812336E+01    1.1160671349526700E+02   -4.4010467975046573E+01
Br   -1.3478593276484114E+01    1.4859045004767506E+02   -1.4489319188027389E+01
Br   -1.3965520661643853E+02    2.1199815779672358E+02    1.1726457347107416E+02
Br   -9.7936015882604934E+01   -1.7232290909039443E+02   -2.1753073658225198E+01
Br   -6.9331935917218061E+01   -6.1830408072852201E+01   -7.7958920930260627E+00
Br   -2.5733455623719141E+02    2.4344934864474947E+01    7.9866849327224656E+01
Br   -2.4484797361101050E+02    5.9972511802535315E+01    7.1583033803720653E+01
Br   -2.6897116477488214E+02    4.9790668611892336E+01    3.4080957574176402E+01
Br   -1.8778293172493881E+02   -2.5964289491252671E+01    6.9096930360959291E+01
Br   -2.2625156997369305E+02    2.1167182842391139E+02    4.0615714606901662E+01
Br   -2.3215389126017934E+02    1.9843092086350296E+02    1.0664062806209995E+02
Br   -4.1297959538885573E+02    2.2984274164371089E+02    1.8157314550769686E+02
Br    1.3291029518058538E+01   -1.4574049410462885E+02   -7.5526068331411480E+01
Br    1.8912393218585132E+02   -1.7313492403618429E+02   -6.5725505787663337E+01
Br   -5.7224922555881790E+01   -9.9388725040667822E+01    7.9398230561055726E+01
Br    2.1827024139646941E+01   -1.5441138301166235E+00   -8.2383010931510114E+01
Br   -1.7650729053984364E+02    4.3608137239903591E+01    5.1681591816317997E+01
Br   -6.5819622971622451E+01    4.1408098769771307E+01    4.3629794955853086E+01
Br   -1.5306173326335238E+02    2.3678394180127839E+02    2.5542663254644026E+01
Br    8.2298461099347229E+00    1.4870324394940786E+02    3.7047364733563874E+01
Br   -1.5402785651680372E+02    1.5146421341224502E+02    1.4975522821198859E+02
Br    1.7087755259366315E+02   -1.8449706413672317E+02   -9.3886309993504526E+01
Br    2.3451680022475867E+02   -1.7309463403114361E+02   -4.2052074839216864E+01
Br    1.1406938261787529E+02   -1.6168446642157392E+02    4.7599357124490327E+00
Br    1.1248648547636462E+02   -3.4962416675779764E+01   -6.5402412651015140E+01
Br    4.2166608799859148E+01   -4.3536468326011025E+01   -4.3335309256802141E+01
Br    1.4811681079209835E+01    4.2088133860621177E+01    1.4670780894939682E+02