 # Version information for this restart file 
 # current date 2020-12-23 14:59:04.526
 # current working dir /Users/bvanbeek/Downloads/MM_MD_workdir/md
 # Program compiled at                             Fri Apr 19 11:24:34 CEST 2019
 # Program compiled on                                             192.168.1.124
 # Program compiled for                           Darwin-IntelMacintosh-gfortran
 # Source code revision number                                         svn:18464
 &GLOBAL
   PRINT_LEVEL  LOW
   PROJECT_NAME cp2k
   RUN_TYPE  MD
 &END GLOBAL
 &MOTION
   &MD
     ENSEMBLE  NPT_F
     STEPS  10000
     TIMESTEP     2.4999999999999996E+00
     STEP_START_VAL  1500
     TIME_START_VAL     3.7499999999999500E+03
     ECONS_START_VAL    -5.5495911227455137E+00
     TEMPERATURE     3.0000000000000000E+02
     &BAROSTAT
       PRESSURE     1.0100000000000000E+00
       TIMECON     4.9999999999999994E+02
       &VELOCITY
            -1.3149005324141806E-06    1.2269492790350917E-06   -1.1488331567919520E-06    1.2269492790350968E-06 \
             9.5278487019449080E-07   -1.9284193273659651E-08   -1.1488331567919514E-06   -1.9284193273659654E-08   -1.9601786374816462E-07
       &END VELOCITY
       &MASS
             2.1920353963970435E+08    2.1920353963970435E+08    2.1920353963970435E+08    2.1920353963970435E+08 \
             2.1920353963970435E+08    2.1920353963970435E+08    2.1920353963970435E+08    2.1920353963970435E+08    2.1920353963970435E+08
       &END MASS
       &THERMOSTAT
         TYPE  CSVR
         &CSVR
           TIMECON     9.6755373060191392E+00
           &THERMOSTAT_ENERGY
                 1.0267361933417583E-03
           &END THERMOSTAT_ENERGY
           &RNG_INIT
Wiener process for Thermostat # 1        1 F T F   4.2724625076989353E-01         760047168.0        3706383288.0        1611380824.0        2731913781.0         895079139.0        3202292803.0             12345.0             12345.0             12345.0             12345.0             12345.0             12345.0             12345.0             12345.0             12345.0             12345.0             12345.0             12345.0
           &END RNG_INIT
         &END CSVR
       &END THERMOSTAT
     &END BAROSTAT
     &THERMOSTAT
       TYPE  CSVR
       &CSVR
         TIMECON     4.9999999999999994E+02
         &THERMOSTAT_ENERGY
              -1.1641309905083808E+00
         &END THERMOSTAT_ENERGY
         &RNG_INIT
Wiener process for Thermostat # 1        1 F T F  -2.3466837912799321E-01        3854553183.0        4000049923.0        3417638867.0        2497637707.0        2155462094.0        3801755001.0             12345.0             12345.0             12345.0             12345.0             12345.0             12345.0             12345.0             12345.0             12345.0             12345.0             12345.0             12345.0
         &END RNG_INIT
       &END CSVR
       &PRINT
         &TEMPERATURE  ON
           FILENAME 
           &EACH
             MD  10
           &END EACH
         &END TEMPERATURE
       &END PRINT
     &END THERMOSTAT
     &AVERAGES  T
       &RESTART_AVERAGES
         ITIMES_START  1
         AVECPU     5.3996728000541450E-02
         AVEHUGONIOT     0.0000000000000000E+00
         AVETEMP_BARO     3.1071386242342317E+02
         AVEPOT    -5.3948173935314863E+00
         AVEKIN     6.1073231172433451E-01
         AVETEMP     2.3853281471577364E+02
         AVEKIN_QM     0.0000000000000000E+00
         AVETEMP_QM     0.0000000000000000E+00
         AVEVOL     2.3656196877302462E+05
         AVECELL_A     5.5451643451294132E+01
         AVECELL_B     7.8018704208331854E+01
         AVECELL_C     5.4623668914455365E+01
         AVEALPHA     9.0214852829711901E+01
         AVEBETA     8.9515109329869787E+01
         AVEGAMMA     8.9495570092347762E+01
         AVE_ECONS    -1.2443657648797999E+00
         AVE_PRESS     5.0293366010445091E+00
         AVE_PXX    -1.3702381736758613E+00
       &END RESTART_AVERAGES
     &END AVERAGES
   &END MD
   &PRINT
     &TRAJECTORY  ON
       &EACH
         MD  10
       &END EACH
     &END TRAJECTORY
     &CELL  ON
       FILENAME 
       &EACH
         MD  10
       &END EACH
     &END CELL
     &FORCES  ON
       FILENAME 
       &EACH
         MD  10
       &END EACH
     &END FORCES
   &END PRINT
 &END MOTION
 &FORCE_EVAL
   METHOD  FIST
   STRESS_TENSOR  ANALYTICAL
   &MM
     &FORCEFIELD
       VDW_SCALE14     1.0000000000000000E+00
       EI_SCALE14     1.0000000000000000E+00
       SHIFT_CUTOFF  T
       DO_NONBONDED  T
       IGNORE_MISSING_CRITICAL_PARAMS  T
       &SPLINE
         R0_NB     1.0000000000000001E-01
       &END SPLINE
       &NONBONDED
         &LENNARD-JONES
           ATOMS Cs Cs
           EPSILON     2.2644852172126850E+01
           SIGMA     5.8500000000000005E+00
         &END LENNARD-JONES
         &LENNARD-JONES
           ATOMS Cs Pb
           EPSILON     8.6920055954630953E+01
           SIGMA     5.1000000000000005E+00
         &END LENNARD-JONES
         &LENNARD-JONES
           ATOMS Br Pb
           EPSILON     2.0528187276773045E+02
           SIGMA     2.9000000000000004E+00
         &END LENNARD-JONES
         &LENNARD-JONES
           ATOMS Br Cs
           EPSILON     5.3481070753900497E+01
           SIGMA     3.8500000000000005E+00
         &END LENNARD-JONES
         &LENNARD-JONES
           ATOMS Br Br
           EPSILON     1.2630795322675199E+02
           SIGMA     4.2599999999999998E+00
         &END LENNARD-JONES
         &LENNARD-JONES
           ATOMS Pb Pb
           EPSILON     3.3363415533600221E+02
           SIGMA     5.9800000000000004E+00
         &END LENNARD-JONES
       &END NONBONDED
       &CHARGE
         ATOM Cs
         CHARGE     2.0000000000000001E-01
       &END CHARGE
       &CHARGE
         ATOM Pb
         CHARGE     4.0000000000000002E-01
       &END CHARGE
       &CHARGE
         ATOM Br
         CHARGE    -2.0000000000000001E-01
       &END CHARGE
     &END FORCEFIELD
     &POISSON
       PERIODIC  XYZ
       &EWALD
         EWALD_TYPE  SPME
         GMAX  22
         O_SPLINE  4
       &END EWALD
     &END POISSON
     &PRINT
       &FF_INFO  LOW
         SPLINE_INFO  F
         SPLINE_DATA  F
       &END FF_INFO
     &END PRINT
   &END MM
   &SUBSYS
     &CELL
       A     3.0887193912643500E+01    6.0564950622751845E-01    3.6665759604831893E-01
       B     9.2147525114290441E-01    4.2364099723183195E+01   -3.5258652748154412E-01
       C     2.7765968579207506E-01   -2.5065624173176848E-01    2.9608909625418043E+01
       PERIODIC  XYZ
       MULTIPLE_UNIT_CELL  1 1 1
     &END CELL
     &COORD
Br   -1.1310395679092359E+01    1.7501792687347063E+01   -1.7080204800194909E-01
Br   -8.9129496007317606E+00    1.7923141469573363E+01    1.1510220542583369E+01
Br   -1.1911614897151396E-01   -1.0074806009362208E+01   -1.0515364769715326E+01
Br   -3.1061719838030882E-01   -9.0970124149371294E+00   -1.0100244218841581E-01
Br    4.9716952721503581E-02   -9.6367395732245473E+00    9.8229690751568430E+00
Br    4.7526815199802747E-01    4.2378994021304939E+00   -8.6500837317506107E+00
Br    1.5929943975066940E-01    4.1689451798415984E+00    1.2252358134330330E+00
Br    4.8806589068315603E-01    4.4379434285466575E+00    1.0913235974402181E+01
Br   -4.9045246527900810E-01    1.6435929931327838E+01   -9.3720323593332644E+00
Br    5.2325901172056533E-01    1.8244685264565604E+01    1.0531150304736855E-01
Br    1.1014052490487534E+00    1.7262021257518519E+01    1.0063249335293694E+01
Br    1.0966012975529850E+01   -1.0241273663878715E+01   -1.0994037135589258E+01
Br    1.0725456184555810E+01   -9.9968710820610003E+00    1.1242689476187431E+00
Br    9.0973327248941693E+00   -1.0241915103229729E+01    9.1647032616827353E+00
Br    1.0403478219381181E+01    4.2968505284216842E+00   -1.0290197781233344E+01
Br    1.0932120270335975E+01    3.7627916652808495E+00    8.6926353666913170E-01
Br    9.2850070047760607E+00    3.7624579138044765E+00    1.0481339104867921E+01
Br    1.0669435316263250E+01    1.7241474557260645E+01   -9.9359213898014040E+00
Br    1.0048304984268775E+01    1.8875647908521046E+01   -9.7161575445391668E-01
Br    1.1771869466970035E+01    1.7258927806465287E+01    9.2106389419211752E+00
Pb   -1.5012100518472577E+01   -1.5433829270786955E+01   -1.4300482988080686E+01
Pb   -1.5529946159313482E+01   -1.4579403939109845E+01   -6.0113352134917104E+00
Pb   -1.6691936470919167E+01   -1.4289707215553097E+01    4.8405457482715901E+00
Pb   -1.5833305820836376E+01   -1.0229173258989264E-01   -1.4364057800964357E+01
Pb   -1.4604745873677896E+01    4.5801978928875020E-01   -5.1460172758698981E+00
Pb   -1.6047395696012348E+01    2.1973869904295645E-01    4.9758816968334827E+00
Pb   -1.5259591368424333E+01    1.3627751294471016E+01   -1.4911869681565729E+01
Pb   -1.5358348078442159E+01    1.3362711483249143E+01   -5.7185941018728750E+00
Pb   -1.5510472712413980E+01    1.2884546645829859E+01    4.1544852857213384E+00
Pb   -5.9087062507929335E+00   -1.2817708166019834E+01   -1.4870677019305813E+01
Pb   -5.3181812858886195E+00   -1.4261523358840330E+01   -5.1847161124025973E+00
Pb   -4.7637872876861920E+00   -1.4244123910366143E+01    4.7211033036808816E+00
Pb   -5.1214048154991190E+00    5.1999459079279642E-01   -1.4739340686037924E+01
Pb   -5.5607021156228065E+00   -3.8867591559091291E-01   -5.1136927370109904E+00
Pb   -5.7030336844666927E+00    6.1121568248072633E-01    5.7370847680080219E+00
Pb   -4.3315216314560745E+00    1.4393401627497783E+01   -1.3833504934176212E+01
Pb   -5.6503049827262215E+00    1.4251478161283025E+01   -5.5414529349682997E+00
Pb   -4.3336031465885281E+00    1.4081899464517971E+01    4.9499390742162293E+00
Pb    4.6827134594073572E+00   -1.3070487097402887E+01   -1.4978562052876203E+01
Pb    4.6926541791806455E+00   -1.5046919394586334E+01   -5.4207756394486646E+00
Pb    4.9458911374298378E+00   -1.4037349335218924E+01    4.8881963978854559E+00
Pb    5.0223539522081007E+00    3.6028951021240080E-01   -1.5799269548240840E+01
Pb    5.7285184882519875E+00    1.0226584884085930E+00   -4.3342423457753627E+00
Pb    5.5828048754080024E+00    8.1892425921425294E-01    4.4496865207554182E+00
Pb    4.9287853152772785E+00    1.3127065299262616E+01   -1.4293451673158055E+01
Pb    5.4532495373431500E+00    1.3673804418371171E+01   -5.5293205375254582E+00
Pb    5.6429778411650178E+00    1.4285941862459792E+01    5.5402593069378314E+00
Pb   -1.0299589283916976E+01   -1.3721649320121463E+01   -9.8911420690397307E+00
Pb   -9.4319244342517621E+00   -1.4357547431027767E+01    2.6463620018375950E-01
Pb   -9.8988306613502459E+00   -1.4229620071293221E+01    9.8562377210861616E+00
Pb   -9.9253318487557429E+00    5.9612399754168399E-01   -9.2514512628249772E+00
Pb   -9.5231205383743749E+00    3.9666965448917973E-01   -5.9750335261601596E-02
Pb   -1.0959894757335638E+01    1.2253964499958265E+00    1.0333570400642254E+01
Pb   -1.0175381652664926E+01    1.4114971968497798E+01   -1.0313333762268501E+01
Pb   -1.0581855702474314E+01    1.4942047429717526E+01    9.4556189231463350E-01
Pb   -9.5946179586759062E+00    1.4995604039352024E+01    1.0285564599444168E+01
Pb   -1.3414091653650391E+00   -1.4461799656331310E+01   -1.0510875454741544E+01
Pb    2.0563994649407211E-01   -1.4253972924800724E+01    1.1312300413411150E-01
Pb    4.2260872555161461E-01   -1.4661497188782327E+01    1.0342061150406428E+01
Pb    4.1588263207629933E-01    1.3530741069129892E+00   -7.7779279626923516E+00
Pb    3.9218518314937412E-01    1.1966110624066193E+00    1.3955892877565605E+00
Pb    3.9445528056792478E-01    3.8183879895197220E-01    9.6402500430647837E+00
Pb    2.5627028264101376E-01    1.3598909859413203E+01   -9.6841605837623561E+00
Pb    1.2337628368543783E-01    1.4428291293706486E+01   -1.2924075675659323E+00
Pb   -1.5724534240203819E-01    1.4328026503030662E+01    1.0386194406430285E+01
Pb    9.1795735044072480E+00   -1.4310630453336852E+01   -1.0137169781816642E+01
Pb    9.2895652205286385E+00   -1.3711455898095107E+01   -4.0281948800732525E-01
Pb    9.9786558060416493E+00   -1.3878515572393155E+01    1.0217019625832210E+01
Pb    9.9108071854251616E+00    2.8868420427034028E-02   -1.0759483250027078E+01
Pb    1.0372103028468814E+01    2.4113025648524933E-01    2.9903041034627365E-01
Pb    1.1188306375853024E+01    8.1536424323215145E-03    1.0028774226938346E+01
Pb    1.0520932160603955E+01    1.4094833237142140E+01   -1.0703942491127371E+01
Pb    1.0777862493657627E+01    1.4957357303399787E+01   -8.4066722531354632E-01
Pb    1.1515431712477291E+01    1.4072040553462625E+01    9.8778454390301409E+00
Pb   -1.5444721722295309E+01   -2.1267088951324588E+01   -1.5903531204873941E+01
Pb   -1.6046590233790550E+01   -2.1199676260159222E+01   -5.6525122553905058E+00
Pb   -1.6283202551896089E+01   -2.2191385566496024E+01    5.0450690888374892E+00
Pb   -1.5764037867544090E+01   -7.1421724627630310E+00   -1.4541771532101411E+01
Pb   -1.4862930125873616E+01   -7.2536253230083796E+00   -4.9979307389150573E+00
Pb   -1.5879131480582753E+01   -7.1299507338530423E+00    5.5804111731224211E+00
Pb   -1.5160124896029018E+01    6.8532391076025752E+00   -1.3844073239959330E+01
Pb   -1.5356401838968109E+01    7.4071830071723088E+00   -5.2814597643305179E+00
Pb   -1.4358918252485303E+01    7.0600375313379731E+00    4.5624394138022142E+00
Pb   -5.2567907922513397E+00   -2.2053760713859884E+01   -1.5087856569595209E+01
Pb   -5.5855473499730692E+00   -2.0565612744152769E+01   -4.4597162772038050E+00
Pb   -5.5344162726432904E+00   -2.1199027596088346E+01    4.5811843870276840E+00
Pb   -4.8901280006560528E+00   -6.6353573804820387E+00   -1.5557852772239650E+01
Pb   -4.4570450318806492E+00   -6.8053824567932404E+00   -5.5703922218863644E+00
Pb   -4.8810936165687790E+00   -7.2080489621105768E+00    5.2848286239050930E+00
Pb   -5.6073752250323894E+00    7.4010311952748165E+00   -1.3783970177566793E+01
Pb   -4.8460196482300839E+00    7.7894394042187738E+00   -4.7847631033564122E+00
Pb   -5.4150382296135726E+00    6.9538139037154973E+00    4.7778926286004104E+00
Pb    4.4430421616522384E+00   -2.1945565694471934E+01   -1.4723901843853801E+01
Pb    3.7173798748068720E+00   -2.1418968452701460E+01   -5.1196196906547033E+00
Pb    5.0741282114070660E+00   -2.1381391638571124E+01    5.9204479043152194E+00
Pb    5.1587066301666420E+00   -6.4049911761997027E+00   -1.5635613165923937E+01
Pb    5.1977076599692582E+00   -7.2310841709472058E+00   -5.3869913477603024E+00
Pb    5.0807488679775323E+00   -6.4226986671176887E+00    5.3664867756618033E+00
Pb    4.1681004732986358E+00    6.9743830964626143E+00   -1.4452706898087769E+01
Pb    6.0583104387371494E+00    7.0943776838985890E+00   -5.0223039947501418E+00
Pb    5.2944015353934706E+00    7.0655692299387889E+00    5.1747013620022093E+00
Pb   -1.0835800747139702E+01   -2.1583218676271194E+01   -1.0027460288059840E+01
Pb   -1.0669569819768661E+01   -2.1209519932529279E+01   -2.0969095844393329E-01
Pb   -9.6280155916704615E+00   -2.0634482673037276E+01    9.9174301122025810E+00
Pb   -9.0865169261521430E+00   -7.0906132126826646E+00   -1.0145037148189873E+01
Pb   -1.0486595395640952E+01   -6.8418800069367043E+00   -4.3963959574169048E-01
Pb   -9.8420843464077166E+00   -7.3443473532747658E+00    8.9987180097450068E+00
Pb   -1.0670662826136496E+01    7.5495629944791336E+00   -9.6826688030394497E+00
Pb   -1.0699480641554601E+01    7.5981167513068177E+00   -4.3150846740951471E-01
Pb   -9.6287740263516657E+00    7.2807767935152450E+00    1.0300733269122439E+01
Pb   -1.2865339085423513E+00   -2.1402756570957052E+01   -9.3925967067029337E+00
Pb   -1.2181037556584839E+00   -2.0634596839651500E+01    4.5774485320085823E-01
Pb    8.2953805565629035E-02   -2.1463284317785963E+01    9.7163162258764491E+00
Pb   -8.0721679101397048E-01   -7.0059045046191040E+00   -1.0371845635621137E+01
Pb    1.0008530114899969E+00   -6.4499015177195496E+00   -3.8398458915809869E-01
Pb    2.7584153582325432E-01   -6.5937346381523021E+00    9.3279611129193754E+00
Pb    5.8322417333458310E-01    7.4635481327153448E+00   -9.0562093706634457E+00
Pb    4.4257202717200411E-01    7.8525642726316889E+00    4.9278270254497147E-01
Pb   -1.9931377268029332E-01    7.1120070090325784E+00    1.0302346299976477E+01
Pb    9.4363887145537184E+00   -2.0660664611097882E+01   -1.0203000197142718E+01
Pb    1.0443822925526057E+01   -2.0868127740399903E+01    3.4967322359810848E-01
Pb    9.3261905011175266E+00   -2.1767926513698871E+01    9.9051199937639769E+00
Pb    1.0702190551266892E+01   -7.2600002106325938E+00   -9.2100551546624470E+00
Pb    9.8163135169031577E+00   -7.1431525232711985E+00    7.2986679040883362E-01
Pb    1.0056112828071182E+01   -7.3797352284339741E+00    1.0158045880029944E+01
Pb    1.0650552822385002E+01    7.4210442490330166E+00   -9.6441322520615493E+00
Pb    1.0307645663881567E+01    6.8837153423311790E+00    1.6989113355292079E-01
Pb    1.0008739815484319E+01    6.7409400973713529E+00    1.0079710325747369E+01
Cs   -8.8641430777647532E+00   -1.7338464893630551E+01   -1.4062273653347734E+01
Cs   -1.1171004199467520E+01   -1.8182527742616067E+01   -5.4644310298453451E+00
Cs   -1.1779867354728815E+01   -1.7688092347380309E+01    4.5041943063062142E+00
Cs   -1.0931455967161838E+01   -3.4787350071310494E+00   -1.5289142993932495E+01
Cs   -9.8787502024110090E+00   -3.5095023513154140E+00   -5.7067469967689144E+00
Cs   -9.9212965470400523E+00   -4.2838896014092578E+00    4.4488052957544921E+00
Cs   -1.0579483881303251E+01    1.0664668985673803E+01   -1.4173914014514919E+01
Cs   -1.0241718214199274E+01    1.1008182109688057E+01   -5.3656246012367506E+00
Cs   -9.8193094673351098E+00    9.9597502347845577E+00    4.7208352048309203E+00
Cs   -2.0314296140910377E+00   -1.8012919020940831E+01   -1.3760173706994411E+01
Cs   -6.0579909461872072E-01   -1.7673817958972673E+01   -4.0346510516225242E+00
Cs   -6.1234905054827993E-01   -1.8028234291625893E+01    5.6203618817628689E+00
Cs    7.1707519604514647E-01   -3.3177181436958656E+00   -1.4913878860537171E+01
Cs   -3.1088027952294073E-01   -2.8722646249585937E+00   -4.0524413500830843E+00
Cs    7.0822211292331308E-02   -2.2155339442380746E+00    5.6207319327971987E+00
Cs   -4.4780323837486680E-01    1.0756240431037709E+01   -1.4974725925262938E+01
Cs   -1.4245686070815525E-01    1.0919727717237883E+01   -4.3350303711910634E+00
Cs    4.3000567426752061E-02    1.1517049902150175E+01    5.1639742268200530E+00
Cs    1.0086255800478153E+01   -1.7799846721795461E+01   -1.4340117501412832E+01
Cs    9.6801897862245827E+00   -1.8373837708258698E+01   -5.8381757715173608E+00
Cs    1.0164854586411842E+01   -1.8298365269727213E+01    5.6427776073467264E+00
Cs    1.0932707769571383E+01   -3.2362804238739247E+00   -1.5353280914740441E+01
Cs    1.0137807070469181E+01   -2.9455297931690438E+00   -5.4342184120150971E+00
Cs    1.0406908216228951E+01   -2.5344533780639131E+00    5.6919530765467252E+00
Cs    1.1314637590260116E+01    1.0835599987203832E+01   -1.4858443140535513E+01
Cs    1.0211003120574146E+01    1.0950103789857112E+01   -4.0937260646359155E+00
Cs    1.0642135444396400E+01    1.1201027649262473E+01    5.7331539704659891E+00
Cs   -5.7994539147974455E+00   -1.1012638114945103E+01   -8.9552791517724835E+00
Cs   -3.8095816945412335E+00   -9.6029484190008212E+00    6.3779328175301542E-01
Cs   -4.0952788011568160E+00   -1.0872520670479107E+01    9.4035261806053398E+00
Cs   -5.0963251834595331E+00    3.6541250489958852E+00   -8.7921944915235688E+00
Cs   -5.2479396384735741E+00    3.1543786983858979E+00   -1.2439368349917262E-01
Cs   -4.0795803803140869E+00    3.2718304433470551E+00    1.1094980473203728E+01
Cs   -5.1546166929040957E+00    1.8270900888234078E+01   -1.0722280109173493E+01
Cs   -5.9892140727335974E+00    1.7171629130911882E+01   -1.7518436817948985E-01
Cs   -3.5719976060264518E+00    1.8221033235196341E+01    8.3644233972186317E+00
Cs    4.1783296102789729E+00   -1.0091865155436720E+01   -1.0262166375087173E+01
Cs    4.3473434107887039E+00   -9.7754757853791965E+00   -1.2120672624390001E+00
Cs    4.2438863192462861E+00   -1.1140833166259700E+01    9.2960554948549170E+00
Cs    5.0709185430797410E+00    3.4637869827013552E+00   -9.2200863903553589E+00
Cs    6.4056300910220560E+00    4.0516296791421498E+00    3.5345172408632264E-01
Cs    4.8834349453097579E+00    4.2566265073535110E+00    9.3524057048062215E+00
Cs    4.8269114883262576E+00    1.7286583858405908E+01   -1.0528426629268766E+01
Cs    6.0515908169947563E+00    1.6755866772241891E+01   -8.2689860852734096E-02
Cs    6.2830585994439767E+00    1.6604821497695319E+01    1.0766436654069674E+01
Cs    1.7158460692190399E+01   -9.2488116109867100E+00   -9.4207496176393057E+00
Cs    1.5735233561191624E+01   -1.0005959054106929E+01   -4.0441547681535139E-01
Cs    1.4235594178112803E+01   -1.0516956279181111E+01    1.0255255238860087E+01
Cs    1.5347415458564141E+01    4.1677050113880538E+00   -1.0067743082360172E+01
Cs    1.5025998694243066E+01    4.5836887618301088E+00    5.2570844297205355E-01
Cs    1.5206581081070421E+01    4.1920737241159687E+00    1.0848550564430342E+01
Cs    1.5943184741404238E+01    1.7907087688876388E+01   -9.4543454562294453E+00
Cs    1.5967617373890326E+01    1.8076729827955237E+01   -6.2004685248931246E-01
Cs    1.5627503330924290E+01    1.7569852971112891E+01    9.7653974225250995E+00
Cs   -9.5797021466896712E+00   -1.0736362400344827E+01   -4.6297134159516542E+00
Cs   -1.1394362366217353E+01   -1.1349996414797587E+01    3.6364626809278793E+00
Cs   -1.1414700450548724E+01   -1.1412952343310350E+01    1.4300961096358160E+01
Cs   -1.0150896525355481E+01    3.8434991689452556E+00   -4.7415680236344055E+00
Cs   -1.0811454968893731E+01    3.2911222048231794E+00    4.9123080857741748E+00
Cs   -9.4067362768645886E+00    3.6784648353462441E+00    1.5251016682094132E+01
Cs   -1.0374563848661351E+01    1.7259026969180528E+01   -4.4141930161990279E+00
Cs   -9.7980663403127135E+00    1.7887513542428231E+01    5.4194198828953581E+00
Cs   -1.0742327863890607E+01    1.6831505201049605E+01    1.4738309149959997E+01
Cs    1.0088132473777367E-01   -1.2036910271116930E+01   -5.6366752610781869E+00
Cs    4.2314082433399841E-01   -1.0703066749429228E+01    5.1964598091406788E+00
Cs    2.3108519317636474E-02   -1.1003186883010663E+01    1.4865960296289103E+01
Cs   -1.2621368370577977E+00    4.1276321592419638E+00   -3.5192957735474431E+00
Cs   -9.4048863028581745E-02    4.3542507474428254E+00    6.0676028902105568E+00
Cs   -4.9984902845883555E-01    4.0965267813095707E+00    1.5468849335162027E+01
Cs    2.8944270943391232E-01    1.7554904256922701E+01   -5.2177939474670536E+00
Cs    1.8044670919144528E+00    1.7540673842221985E+01    4.2966640036306076E+00
Cs    2.6130374916930338E-01    1.7783302644199729E+01    1.4988409846364309E+01
Cs    9.3083731170422794E+00   -1.0679185706237167E+01   -5.4009748523368737E+00
Cs    1.0298267905630556E+01   -9.9373481107852335E+00    5.2780773421578564E+00
Cs    9.1863207742073865E+00   -9.8670781045289591E+00    1.5251985956487420E+01
Cs    1.0473322800237407E+01    3.6478753918519682E+00   -6.3614914002955629E+00
Cs    1.0462514073190937E+01    4.8720894029706869E+00    5.3647734815233674E+00
Cs    9.7050964693636317E+00    4.1943965995326478E+00    1.4886563706083212E+01
Cs    1.0614741765473577E+01    1.8783790057279102E+01   -5.6935323538206726E+00
Cs    9.8055543128664588E+00    1.7087078830022271E+01    4.6346345542505070E+00
Cs    1.1215905119380587E+01    1.7358805374004092E+01    1.4964393632594595E+01
Cs   -1.5335865016660152E+01   -1.8132025660600714E+01   -9.8705978381375807E+00
Cs   -1.6601578053885181E+01   -1.8291217972619730E+01   -1.2119313183683722E+00
Cs   -1.5371635845725660E+01   -1.7561734779145805E+01    9.2567359698344713E+00
Cs   -1.4772971006927392E+01   -3.5828285007981191E+00   -9.3367487596318117E+00
Cs   -1.4270387017008023E+01   -2.9427203266855022E+00    3.2558902208806700E-01
Cs   -1.5086915985858241E+01   -3.6875876775603449E+00    9.7725347081257237E+00
Cs   -1.5281724737838299E+01    1.0909819065055224E+01   -1.0338018825944999E+01
Cs   -1.5252678515756861E+01    1.0741077219044435E+01   -1.1389765954699715E+00
Cs   -1.4135817723234100E+01    1.0738786813620397E+01    9.9053398629676703E+00
Cs   -5.4097169682134032E+00   -1.8180493178746076E+01   -9.1726920784522221E+00
Cs   -4.8887640200697593E+00   -1.7493329488116721E+01    1.5543216339248642E-02
Cs   -3.9328550753140683E+00   -1.7458651273785325E+01    9.8547073180408606E+00
Cs   -4.3603492842956104E+00   -3.1270345404663082E+00   -1.0224714171119704E+01
Cs   -5.1362094000856073E+00   -2.7712677163133148E+00    1.6488947470637697E-01
Cs   -5.9355891477344773E+00   -2.6111162605793794E+00    9.9494768174274597E+00
Cs   -5.7320775931864461E+00    1.0923645266336420E+01   -9.4089462569367850E+00
Cs   -5.9541566558983803E+00    1.0755058305721658E+01   -3.2389150019972342E-02
Cs   -5.5728031106392804E+00    9.5861038237753142E+00    1.0170385304519380E+01
Cs    5.0188982528890174E+00   -1.7659788906967307E+01   -1.1326370303643319E+01
Cs    3.5127589793483862E+00   -1.8130057485707052E+01    1.5457344830385591E+00
Cs    4.4636912381373168E+00   -1.8977298594688293E+01    1.0584122289615376E+01
Cs    4.1196048122617261E+00   -3.9459571230905892E+00   -9.8149595072184965E+00
Cs    5.6079780409964401E+00   -3.9570607952423140E+00    1.6742974437195560E-01
Cs    5.3395880442230617E+00   -3.4893093881560300E+00    1.0290067340352106E+01
Cs    5.5201916011722778E+00    1.0682520898840961E+01   -1.0223029891666705E+01
Cs    6.0559510168913766E+00    1.1299714682689860E+01    1.2531641487183900E+00
Cs    5.7456628451247482E+00    1.0307939589324702E+01    9.9180339658453871E+00
Br   -1.2680239782515381E+01   -1.4729521371728090E+01   -1.2359146303693779E+01
Br   -1.4580784814704723E+01   -1.4250794301418367E+01   -3.5281443860820008E+00
Br   -1.3557206351180975E+01   -1.5744279990278235E+01    6.8035536775674039E+00
Br   -1.2610258423708228E+01    1.6250736549774616E+00   -1.2310570458130092E+01
Br   -1.2562500706502318E+01    1.4510814310287314E+00   -2.7304965036939959E+00
Br   -1.3453794926696107E+01    1.0436592536382281E+00    7.3615009603420241E+00
Br   -1.2921155705261922E+01    1.3820248323016649E+01   -1.2819931855406923E+01
Br   -1.2896558914566375E+01    1.2771949570047280E+01   -4.1810353633841988E+00
Br   -1.3195910606777895E+01    1.3560907309272736E+01    6.4994155342252125E+00
Br   -3.0010806971661421E+00   -1.2416976750190312E+01   -1.2791199615164629E+01
Br   -3.0131685187554691E+00   -1.5118498882274034E+01   -3.1745008686626313E+00
Br   -2.2108715629358064E+00   -1.5129979619289816E+01    6.7452156307171824E+00
Br   -3.0776142430008910E+00   -4.5088993641864944E-01   -1.2113127417856935E+01
Br   -2.5973342255699050E+00    5.8488335604095798E-01   -8.5944205548054631E-01
Br   -4.8211980105066647E+00    5.3376785320585540E-01    8.4960996829611304E+00
Br   -2.1569862334599668E+00    1.3020564068326541E+01   -1.2045877179131310E+01
Br   -2.7795507885314765E+00    1.2419151076795737E+01   -1.9349959548971156E+00
Br   -2.1278733794753579E+00    1.4676579176768012E+01    7.6816822646366720E+00
Br    6.1886444321268330E+00   -1.3441517961962607E+01   -1.2663591881030731E+01
Br    7.6479313216456646E+00   -1.1977220095107860E+01   -2.4584123149584149E+00
Br    7.4550952963277082E+00   -1.5378615868895460E+01    6.2885093633517242E+00
Br    7.1477722957217038E+00    1.0007074023808893E+00   -1.2026657774011381E+01
Br    8.1366418793551656E+00    1.3409030133809761E+00   -1.6144677089841761E+00
Br    5.9504072336526530E+00   -6.2625822947301490E-01    7.1260035669634387E+00
Br    7.0246464243790800E+00    1.4627438182077398E+01   -1.2080495295139048E+01
Br    6.5107072614767656E+00    1.3228574333846495E+01   -2.1412183746353093E+00
Br    8.1641986474962689E+00    1.5264591429260886E+01    7.3267457017133557E+00
Br   -1.2384006226946658E+01   -1.3249654443140770E+01   -7.7878639513286529E+00
Br   -1.3112935786705881E+01   -1.5022247983011351E+01    1.3493339737120735E+00
Br   -1.4212001394915870E+01   -1.4706643083639570E+01    1.1756290259135019E+01
Br   -1.1599879558744567E+01    9.5321304710047483E-01   -6.6188546417101408E+00
Br   -1.3230356933931105E+01    1.6846619121258906E+00    2.4278437011206671E+00
Br   -1.3047854032089088E+01   -2.2637771481343474E-01    1.2539858268995710E+01
Br   -1.2944596007913635E+01    1.4112105311585376E+01   -8.4753998708289089E+00
Br   -1.2828408919494777E+01    1.3193948569001606E+01    1.8079203444390826E+00
Br   -1.0633928618966641E+01    1.2649915844293256E+01    1.2027811548793016E+01
Br   -2.9851677586852055E+00   -1.4226179967913762E+01   -7.2625011142142535E+00
Br   -1.4668223980615123E+00   -1.2379695039072274E+01    1.8804653730803322E+00
Br   -1.5946546985513692E+00   -1.4454981603945836E+01    1.2261975902518406E+01
Br   -1.9184962725819770E+00    4.1416062116875452E-01   -5.9406740443358297E+00
Br   -2.9937288188253550E+00    1.2556216424848593E-01    4.3736514696769913E+00
Br   -1.5266619286861265E+00    7.1708351811028059E-01    1.4040578664002748E+01
Br   -2.6237523114804255E+00    1.3749797517590508E+01   -6.8653622783377850E+00
Br   -2.0861523896662049E+00    1.4267162114361751E+01    2.6936208441036174E+00
Br   -4.4441449521235921E+00    1.4402401604938589E+01    1.1911244483745321E+01
Br    7.4326081865528177E+00   -1.3011780464491943E+01   -8.0601917182888538E+00
Br    7.3841069718011569E+00   -1.3784223537236150E+01    2.2294937680245286E+00
Br    7.2891689630910479E+00   -1.3532876805820900E+01    1.2656633613029273E+01
Br    8.5667049206288670E+00    1.2808041239334162E+00   -7.9485583690280608E+00
Br    8.1853715581652544E+00    1.4414422683637398E+00    3.1240473924110796E+00
Br    8.7444561530175893E+00    1.0989821304112546E-01    1.2834577274434524E+01