 # Version information for this restart file 
 # current date 2020-12-23 15:02:30.244
 # current working dir /Users/bvanbeek/Downloads/MM_MD_workdir/md
 # Program compiled at                             Fri Apr 19 11:24:34 CEST 2019
 # Program compiled on                                             192.168.1.124
 # Program compiled for                           Darwin-IntelMacintosh-gfortran
 # Source code revision number                                         svn:18464
 &GLOBAL
   PRINT_LEVEL  LOW
   PROJECT_NAME cp2k
   RUN_TYPE  MD
 &END GLOBAL
 &MOTION
   &MD
     ENSEMBLE  NPT_F
     STEPS  10000
     TIMESTEP     2.4999999999999996E+00
     STEP_START_VAL  9940
     TIME_START_VAL     2.4849999999995543E+04
     ECONS_START_VAL    -5.5495911227455137E+00
     TEMPERATURE     3.0000000000000000E+02
     &BAROSTAT
       PRESSURE     1.0100000000000000E+00
       TIMECON     4.9999999999999994E+02
       &VELOCITY
            -1.3556900610464369E-06    1.2240778728839931E-06    3.6077275002828595E-06    1.2240778728839924E-06 \
            -2.7951277377583137E-06    2.2433675053138191E-06    3.6077275002828607E-06    2.2433675053137662E-06    3.5559910582724912E-06
       &END VELOCITY
       &MASS
             2.1920353963970435E+08    2.1920353963970435E+08    2.1920353963970435E+08    2.1920353963970435E+08 \
             2.1920353963970435E+08    2.1920353963970435E+08    2.1920353963970435E+08    2.1920353963970435E+08    2.1920353963970435E+08
       &END MASS
       &THERMOSTAT
         TYPE  CSVR
         &CSVR
           TIMECON     9.6755373060191392E+00
           &THERMOSTAT_ENERGY
                 3.8167596838576834E-01
           &END THERMOSTAT_ENERGY
           &RNG_INIT
Wiener process for Thermostat # 1        1 F T F  -1.2429225416255120E-01        1247915958.0        1791559891.0        1300808488.0        1009146698.0         246845364.0        1160046602.0             12345.0             12345.0             12345.0             12345.0             12345.0             12345.0             12345.0             12345.0             12345.0             12345.0             12345.0             12345.0
           &END RNG_INIT
         &END CSVR
       &END THERMOSTAT
     &END BAROSTAT
     &THERMOSTAT
       TYPE  CSVR
       &CSVR
         TIMECON     4.9999999999999994E+02
         &THERMOSTAT_ENERGY
              -3.8561320509799732E+00
         &END THERMOSTAT_ENERGY
         &RNG_INIT
Wiener process for Thermostat # 1        1 F T F   4.2813799192476611E-02         448782159.0         283532550.0         834249876.0        1385057270.0        2423670829.0        2732693357.0             12345.0             12345.0             12345.0             12345.0             12345.0             12345.0             12345.0             12345.0             12345.0             12345.0             12345.0             12345.0
         &END RNG_INIT
       &END CSVR
       &PRINT
         &TEMPERATURE  ON
           FILENAME 
           &EACH
             MD  10
           &END EACH
         &END TEMPERATURE
       &END PRINT
     &END THERMOSTAT
     &AVERAGES  T
       &RESTART_AVERAGES
         ITIMES_START  1
         AVECPU     2.8845486217281387E-02
         AVEHUGONIOT     0.0000000000000000E+00
         AVETEMP_BARO     7.9903466053779084E+02
         AVEPOT    -4.2131300639998779E+00
         AVEKIN     6.8852676801621593E-01
         AVETEMP     2.6891688032414390E+02
         AVEKIN_QM     0.0000000000000000E+00
         AVETEMP_QM     0.0000000000000000E+00
         AVEVOL     5.6987030598809190E+07
         AVECELL_A     4.0211529034199862E+02
         AVECELL_B     4.0580978629422924E+02
         AVECELL_C     2.0124230514337177E+02
         AVEALPHA     6.9634653502136331E+01
         AVEBETA     1.1323535871926404E+02
         AVEGAMMA     1.0913203476214834E+02
         AVE_ECONS    -1.4350328208611494E+00
         AVE_PRESS     2.8638246451707707E+00
         AVE_PXX     2.4771990783714379E+00
       &END RESTART_AVERAGES
     &END AVERAGES
   &END MD
   &PRINT
     &TRAJECTORY  ON
       &EACH
         MD  10
       &END EACH
     &END TRAJECTORY
     &CELL  ON
       FILENAME 
       &EACH
         MD  10
       &END EACH
     &END CELL
     &FORCES  ON
       FILENAME 
       &EACH
         MD  10
       &END EACH
     &END FORCES
   &END PRINT
 &END MOTION
 &FORCE_EVAL
   METHOD  FIST
   STRESS_TENSOR  ANALYTICAL
   &MM
     &FORCEFIELD
       VDW_SCALE14     1.0000000000000000E+00
       EI_SCALE14     1.0000000000000000E+00
       SHIFT_CUTOFF  T
       DO_NONBONDED  T
       IGNORE_MISSING_CRITICAL_PARAMS  T
       &SPLINE
         R0_NB     1.0000000000000001E-01
       &END SPLINE
       &NONBONDED
         &LENNARD-JONES
           ATOMS Cs Cs
           EPSILON     2.2644852172126850E+01
           SIGMA     5.8500000000000005E+00
         &END LENNARD-JONES
         &LENNARD-JONES
           ATOMS Cs Pb
           EPSILON     8.6920055954630953E+01
           SIGMA     5.1000000000000005E+00
         &END LENNARD-JONES
         &LENNARD-JONES
           ATOMS Br Pb
           EPSILON     2.0528187276773045E+02
           SIGMA     2.9000000000000004E+00
         &END LENNARD-JONES
         &LENNARD-JONES
           ATOMS Br Cs
           EPSILON     5.3481070753900497E+01
           SIGMA     3.8500000000000005E+00
         &END LENNARD-JONES
         &LENNARD-JONES
           ATOMS Br Br
           EPSILON     1.2630795322675199E+02
           SIGMA     4.2599999999999998E+00
         &END LENNARD-JONES
         &LENNARD-JONES
           ATOMS Pb Pb
           EPSILON     3.3363415533600221E+02
           SIGMA     5.9800000000000004E+00
         &END LENNARD-JONES
       &END NONBONDED
       &CHARGE
         ATOM Cs
         CHARGE     2.0000000000000001E-01
       &END CHARGE
       &CHARGE
         ATOM Pb
         CHARGE     4.0000000000000002E-01
       &END CHARGE
       &CHARGE
         ATOM Br
         CHARGE    -2.0000000000000001E-01
       &END CHARGE
     &END FORCEFIELD
     &POISSON
       PERIODIC  XYZ
       &EWALD
         EWALD_TYPE  SPME
         GMAX  22
         O_SPLINE  4
       &END EWALD
     &END POISSON
     &PRINT
       &FF_INFO  LOW
         SPLINE_INFO  F
         SPLINE_DATA  F
       &END FF_INFO
     &END PRINT
   &END MM
   &SUBSYS
     &CELL
       A     4.4084603074820086E+02   -1.6658376485605498E+02   -9.7556547708363340E+01
       B    -1.8504877020919693E+02    4.4252801392453108E+02    8.6160266647821217E+01
       C    -1.0641275194869337E+02    8.3450532112740220E+01    1.7815026190859265E+02
       PERIODIC  XYZ
       MULTIPLE_UNIT_CELL  1 1 1
     &END CELL
     &COORD
Br   -2.2377388890769700E+02    2.3171445022765610E+02    1.1227946064015207E+02
Br   -2.5862923969935565E+02    2.5208362490403104E+02    1.5527235456153224E+02
Br    4.0305039424048246E+01   -1.5652396870435544E+02   -3.8374833429295855E+01
Br   -7.5491983685841575E+01   -1.7183270439569796E+01    4.7154774876424966E+01
Br    8.1089810030308328E+01   -1.2116560301699171E+02   -1.3573898723922904E+01
Br    3.4807963625745600E+01   -2.4736864203110557E+01   -5.1991300597607591E+01
Br   -4.9327687075583639E-02    3.5240617893621899E+00   -1.9615977095691747E+01
Br   -1.3188665089719260E+01    1.4752355775646313E+01    4.1522223546541909E+01
Br   -7.5256849591461716E+01    1.3557853574427850E+02    3.5644221613306193E+01
Br   -7.5596585706375450E+01    1.6896596758828963E+02    6.9296145960382461E+01
Br   -9.4729526810612455E+01    1.7709251396893720E+02    9.1645272955882348E+01
Br    1.8344581586418380E+02   -1.8084727562666967E+02   -1.2047134868608273E+02
Br    1.4881342711568121E+02   -7.2544541868528285E+01   -2.7106091896449843E+01
Br    1.9584069038228850E+02   -1.3792836028710263E+02   -2.2369076826771146E+01
Br    1.5437964098598212E+02   -1.0542824803883717E+02   -2.9061881797714417E+01
Br    1.3452795576148210E+02   -4.0097185989711669E+01   -1.3022220055701251E+01
Br    6.1440895001823741E+01    1.0451029322596423E+01   -2.2065731911152810E+01
Br    7.0615606850867792E+01    1.6954789510116612E+02   -1.1661574088582624E+01
Br    1.5107805987939176E+02    1.3546892388731081E+02   -2.0432825286406064E+01
Br    1.2532167465841212E+01    1.1167397356928774E+02    2.6735994859775726E+01
Pb   -1.6327578955107222E+02   -6.1473584828302926E+01   -4.4638264536254383E+01
Pb   -8.5791201765020830E+01   -1.1034851999485390E+02    2.8348691477226723E+01
Pb   -2.0382093163039713E+02   -1.3207291956884141E+01    7.1018681872914456E+01
Pb   -6.5840092772201686E+01   -1.3427324979471211E+02   -1.1682204162995856E+02
Pb   -2.2881885864191736E+02    9.0347231190872265E+01    2.6778129347775014E+01
Pb   -1.5239048709508197E+02    3.6860398745538077E+01    3.8896381329940027E+01
Pb   -3.0151732136879912E+02    1.5520861703197789E+02   -7.7567555891952225E+00
Pb   -2.4747639319412957E+02    2.2404639025573513E+02    3.1445787467006674E+01
Pb   -2.3015776444322424E+02    2.0543030134334299E+02    8.7588620856082102E+01
Pb    4.2460118608052845E+01   -1.6191691399416061E+02   -7.4487608641722346E+01
Pb   -1.1008114935415787E+00   -1.2795782931471635E+02   -1.3509007333373614E+01
Pb   -6.8792206803081299E+01   -9.5488291365489530E+01    5.5075072454956757E+00
Pb    4.0475688734135879E+01   -4.3813761313517645E+01   -1.3435475970718306E+02
Pb   -4.4109389935791391E+01    2.3894532496083794E+01   -6.5339823817726428E+00
Pb   -1.4979044267680263E+02    6.3520182223792048E+01    3.3287016301229698E+01
Pb   -9.9684860121711253E+01    1.2847306962240648E+02   -1.6627790126513879E+01
Pb   -1.1549547996788041E+02    2.7390164048534422E+02    4.1562969703076881E+01
Pb   -2.0899129644102692E+02    2.5490043133940483E+02    1.2149224013485490E+02
Pb    1.9530205502087915E+02   -2.7338464685066464E+02   -1.6835275747385646E+02
Pb    1.6659867144704361E+02   -2.0286647538408104E+02   -8.7633818297762573E+01
Pb    1.7973038586365206E+02   -1.6453726479920300E+02   -3.7713762370816141E+01
Pb    1.1675623401351965E+02   -6.2332377744498714E+01   -3.8848981273594838E+01
Pb    1.5955488375557121E+02   -7.5395822213917768E+01   -4.7922504303138595E+01
Pb   -7.8220639910350043E+00    1.6814094793286255E+01    2.3146960902651461E+00
Pb    5.4673291762424363E+01    1.2381160127898035E+02   -5.7775975363498645E+01
Pb    3.5252931938949037E+00    1.4396994881818017E+02   -2.8457396140257998E+01
Pb    1.2646492047086204E+01    1.1377466904859492E+02    3.4515628902266357E+01
Pb   -1.3280869114864055E+02   -9.8889331117422230E+01   -3.5873161899066098E+01
Pb   -8.7679189336787843E+01   -1.1339765369243410E+02    1.9060488847036776E+00
Pb   -8.8454233536656133E+01   -6.1755234432499080E+01    8.7676392836865219E+01
Pb   -1.3707795948088497E+02    1.4328334429333092E+01   -4.3027616242027513E+01
Pb   -1.2724252061447281E+02    3.9823986705882753E+01    2.4945031826615590E+01
Pb   -1.0483563252999643E+02   -1.8691825564060881E+01    5.6350799487918792E+01
Pb   -1.4550181275585260E+02    1.6816764195006709E+02   -2.4425865759991513E+01
Pb   -2.1863063969107608E+02    2.2160470804282966E+02    1.1318049767092192E+02
Pb   -2.6511531161323825E+02    2.5229706135965120E+02    9.7262107357567643E+01
Pb    6.1376081886274704E+01   -1.5988481084944982E+02   -5.6635656401652753E+01
Pb    1.9163233355130998E+02   -1.8223263766882374E+02   -6.2843872646139019E+01
Pb    1.0286967153426730E+02   -1.4598248373811322E+02    1.1649779258609430E+01
Pb    2.0023182766248318E+01    1.0979100529637933E+00   -8.5467416005477830E+01
Pb    3.3640293741424765E+00    6.8309876212737892E+00   -1.9632835751933921E+01
Pb   -1.4271419708582931E+01    1.2246814753864300E+01    4.2641992828081207E+01
Pb   -7.4766021134060580E+01    1.4135919303685017E+02    3.5544746716527825E+01
Pb    5.2093854442735008E+00    1.5012240314112896E+02    4.0309802358582154E+01
Pb   -9.4524209454905815E+01    1.7423154344078051E+02    8.9220898053794386E+01
Pb    1.7354467286567652E+02   -1.9874393257825406E+02   -9.6869907461396849E+01
Pb    2.2968718412072189E+02   -1.7569385226294492E+02   -2.9973091815788987E+01
Pb    1.8090306762568193E+02   -1.7836847917593326E+02   -2.5482697551474910E+01
Pb    1.8144440486176217E+02   -9.0269124267637437E+01   -7.3545749455086721E+01
Pb    1.8824605507889319E+02   -8.3513400469038871E+01   -5.1881120802345244E+01
Pb    2.2467482177540106E+01    1.5990840379909319E-01    2.5695640144094597E+01
Pb    5.6718089412407913E+01    1.1705515415843279E+02   -5.1980718555175933E+01
Pb    1.8417702456721645E+02    5.5356754069992903E+01   -3.2609194723553742E+01
Pb   -3.8239712658940928E+00    1.2334758301135290E+02    2.2396184612239885E+01
Pb   -9.6806020722502097E+01   -1.7350994761758579E+02   -1.0142107868088704E+02
Pb   -1.1791359075753171E+02   -1.1437295226942339E+02    1.4413103373921750E+00
Pb   -6.7094481224040024E+01   -2.1261451948830555E+02    4.2603963346540176E+01
Pb   -1.3503285013085474E+02   -4.0076616026127283E+01   -8.7035965844088551E+01
Pb   -2.2739052987482776E+02    3.8121984891355559E+01    1.6545074738372083E+01
Pb   -1.8024439286577527E+02   -5.3255528188040362E+00    4.4032085681964467E+01
Pb   -3.2529646949584406E+02    1.4129716538206495E+02    1.5514866924326589E+00
Pb   -2.6075434080596551E+02    1.2967154271040181E+02    7.6149825275902231E+01
Pb   -2.5814422000574785E+02    1.7013392143017913E+02    6.5867020373238987E+01
Pb    5.3575183697637286E+01   -2.3595694689916346E+02   -9.5805479903082201E+01
Pb    8.5452426403833925E+00   -1.5673863572977194E+02   -6.6804817520916004E+01
Pb   -4.3828445103550017E+01   -1.4225935117278758E+02    8.5168836852203960E+00
Pb   -2.3839519311328797E+01   -9.1240985058140296E+01   -9.1876029931196911E+01
Pb   -4.3046578104113749E+01   -4.7205154723618648E+01   -3.4487972663695437E+01
Pb   -6.5890104974043567E+01   -3.2871545297239933E+01    2.9831755295248239E+01
Pb   -4.4651881240465393E+01    5.7786104741952649E+01   -4.1814674923806294E+01
Pb   -4.1529362495106078E+01    3.7615949881674545E+01   -1.7529381791555831E+01
Pb   -1.2334582955021310E+02    1.7462425524290953E+02    1.1586598333952963E+02
Pb    2.2846317069051494E+02   -3.1239847133057765E+02   -1.7082885852022261E+02
Pb    4.9168381707195572E+01   -2.0566209742823065E+02   -5.2762621640012974E+01
Pb    1.8199047455162216E+02   -1.8690993395595530E+02   -3.2276631192956387E+01
Pb    1.1159649360186786E+02   -7.9339988167029958E+01   -1.4896236133968156E+02
Pb    6.7226121051868276E+01   -5.5443162037746738E+01   -3.4999547949198721E+01
Pb    1.3227205787504025E+02   -9.9076616722135910E+01   -2.1512483635223528E+01
Pb    1.3979266122851706E+02   -1.9297539426794735E+01   -9.5001623088685292E+01
Pb    9.0167319997478089E+01    9.6942518296765599E+00   -5.9871614964712219E+00
Pb    5.4369458049869145E+01    4.7612628691564938E+00   -1.5472676519479865E+01
Pb   -1.0912454354686881E+02   -8.9834873997879953E+01   -7.3346956391686732E+01
Pb   -3.5674201194630966E+00   -1.7323140404896134E+02   -3.2665509863391932E+01
Pb   -8.5082554553688823E+01   -1.7996241447688723E+02    8.1970807790421475E+01
Pb   -5.4988569275759012E+01   -8.1852197358111965E+01   -9.2912196889774506E+01
Pb   -1.1317519302391641E+02   -5.2751552940986123E+01   -9.2672351674929878E+00
Pb   -1.4580551994463681E+02   -2.3723864419439472E+01    9.4316392888249680E+01
Pb   -5.0801819482019773E+01    8.0528319733522807E+01   -2.6545009408078027E+01
Pb   -1.6239080386868000E+02    9.9123126842956992E+01    5.2459223117247930E+01
Pb   -1.7805131406036602E+02    1.5154745013373162E+02    1.3679539965710552E+02
Pb    2.6167872996175248E+01   -1.5813837178441634E+02   -8.7751198370988917E+01
Pb    4.9573735082214064E+01   -2.2239855428562242E+02   -5.7295649613715142E+01
Pb    9.5769429441783416E+01   -2.4361842880043434E+02    3.5496487633815775E+01
Pb    1.2784558896987692E+01   -1.3175656521966113E+02   -1.0452335160695620E+02
Pb   -4.1226529068614525E+01   -2.4650923460297680E+01    2.3407128061299900E+01
Pb    5.9196617469839296E+01   -8.9825580964140514E+01    1.3210599356416132E+01
Pb    4.6344204806768133E+01    6.7242517927826626E+01   -6.0400509117565164E+01
Pb    2.3331142962387027E+01   -1.1086783719817067E+01    4.5043849247419603E+00
Pb   -8.7711405331886169E+01    1.3326826472285600E+02    8.4160199407941917E+01
Pb    2.6380073807581613E+02   -2.9596360616289223E+02   -1.1167831747700050E+02
Pb    1.7360991939565716E+02   -2.7793182394623017E+02   -2.6644994364326461E+01
Pb    1.9015086994196065E+02   -2.7430760649312339E+02   -8.3169812953810567E+00
Pb    2.4109773829593820E+02   -1.3269590009303707E+02   -1.0104183796647254E+02
Pb    1.4474575913791989E+02   -6.9813926523867593E+01   -2.5913448057335877E+01
Pb    8.5598256728377862E+01   -5.7952026380943323E+01    4.1802393001677295E+01
Pb    1.1704988473471785E+02   -6.4120125557770280E+01   -6.3407560590992411E+01
Pb    1.2703959027198029E+02   -3.8343691192441980E+01   -3.3239848952373833E+01
Pb    8.0530017420261331E+00    1.0805578596590436E+02    8.1810748286534064E+01
Cs   -1.4687029336525971E+01   -2.0902664920780532E+02   -1.0375016611886613E+02
Cs   -4.6245028018059472E+01   -8.2373885050501514E+01   -9.1371300107117310E+00
Cs   -1.2395402452086822E+02   -6.2065419372468611E+00    6.7869946358796312E+01
Cs   -1.8561643958686194E+01    3.4868803254468204E+01   -7.8040639108229868E+01
Cs   -1.1407834123823120E+01   -5.2812715284580520E+01   -6.5426063010791452E+01
Cs   -1.4360915749946548E+02   -1.0812770218784706E+01    5.0525520953874867E+01
Cs   -8.1997396918058612E+01    4.6466865817180860E+01   -4.3774630430504580E+01
Cs   -1.3545524631975039E+02    1.2922796489361932E+02   -1.2424558874886323E+01
Cs   -2.2062554433791155E+02    2.0029438293801738E+02    2.5925815808600770E+01
Cs    1.9332751440857183E+02   -2.9226422284781773E+02   -1.4166715150472029E+02
Cs    7.8760042461646718E-01   -1.7386305749715771E+02   -4.6741717764782770E+01
Cs    1.5997541311080178E+02   -1.8503454961245882E+02   -5.2115326890298796E+01
Cs    5.9220817050107001E+01   -3.5341541057263548E+01   -8.2074584720757386E+01
Cs   -1.4211016608762600E+01   -8.4732983130929469E+00   -3.9372507548356386E+00
Cs   -1.1087061181216821E+01    1.6136262212604869E+01    7.3726134893837170E+01
Cs    1.0442763746147586E+01    7.9623114559912722E+01   -8.7785206226517658E+01
Cs   -2.5362069488727890E+01    1.3320253679929851E+02    1.1134845660013372E+01
Cs   -1.0480324609894618E+02    1.1550762691753299E+02    4.9486457169973527E+01
Cs    2.4609864178045098E+02   -2.8675684286559891E+02   -1.9259313585291039E+02
Cs    1.6028767330406836E+02   -2.3318694565848205E+02   -1.1762802080748375E+02
Cs    2.1420321542177052E+02   -3.2886226967172945E+02   -9.0991756434323605E+01
Cs    1.5586543700446532E+02   -7.4543627915185368E+01   -8.4426611266945301E+01
Cs    2.0711429966131212E+02   -1.0856020126820239E+02   -5.2535557349276793E+01
Cs    1.3544121191752058E+02   -9.0702961447244448E+01   -4.5600961007685946E+01
Cs    1.2352519766487598E+02    3.2591144053309989E+01    7.2985261214171642E+00
Cs    1.5765388457755279E+02    3.2396809716855870E+01    7.0869393402567709E+01
Cs    1.8278357114138526E+01    1.1896728891169285E+02    4.1197103446299508E+01
Cs    1.5338278527317701E+01   -7.5494119000126986E+01   -8.2470005102118222E+01
Cs    6.9350782526022471E+01   -6.4295374869555118E+01   -2.5088022627295121E+01
Cs   -4.5754051431893480E+01   -1.0798798919402756E+02    8.7125719102914672E+01
Cs   -1.2124560481249704E+02    2.0854426982483734E+01   -1.0121238036637367E+01
Cs   -1.1195854466458601E+02    1.4683034520014201E+02    7.1834270852119488E+01
Cs   -1.1263349660192958E+02    3.1928295704497579E+01    6.6799708417962677E+01
Cs   -1.2251276523532944E+02    2.1867453744005090E+02    6.2093547370152435E-01
Cs   -1.0112920485496538E+02    2.0011255580006207E+02    9.6157687703836359E+01
Cs   -1.4992945514040360E+02    3.0963287536350344E+02    1.2210750467161544E+02
Cs    2.1787070094929456E+02   -1.2891133990816448E+02   -9.3950468796977802E+01
Cs    1.3433218335829594E+02   -7.7162028752072658E+01   -3.4680927751695670E+01
Cs    7.4625819375645463E+01   -1.2497585686840124E+02   -1.1899475024094608E+01
Cs    6.6259752147180237E+01    5.2319909038567914E+01   -5.6249260443372570E+01
Cs    8.1750630167533458E+01   -5.3602219505493913E+01   -2.6638922202352234E+01
Cs   -2.2509749208144957E+01    8.8564946328640502E+01    4.6883397800389048E+01
Cs   -9.3604144171624313E+00    1.5759422103372626E+02   -4.3482955933492143E+01
Cs    3.9571000129676463E+01    1.6586160388669256E+02   -5.3988456426150790E+01
Cs   -1.6381050300742260E+01    2.3196190531463358E+02    4.7058491578819961E+01
Cs    2.5741600228830379E+02   -1.2632481750991612E+02   -9.0086273335985908E+01
Cs    3.3899219340221310E+02   -2.2481962273489046E+02   -1.2908099019560811E+02
Cs    1.5051750450288566E+02   -1.1815450423243584E+02    3.0523714779940057E+01
Cs    2.4180420625206148E+02   -1.4822549838045958E+02   -8.7243468679897532E+01
Cs    2.1499785769271202E+02   -8.6061695835121355E+01   -1.0771777648005316E+02
Cs    2.8165975314412987E+02   -9.4196585770744804E+01    3.6583226921855729E+00
Cs    1.4920125786934094E+02    7.0027543114165738E+01   -5.5328104833798747E+01
Cs    1.6009785832827859E+02    1.1870853545383981E+02   -1.6604111768913437E+01
Cs    1.6095448132331609E+02    9.1642085412403858E+01    3.1152800065877681E+01
Cs   -3.7779066365333271E+01   -9.3386681025444432E+01   -9.6945194324693986E+01
Cs   -1.3038521267399065E+02   -1.5890029219807028E+01   -1.3826699673039343E+01
Cs   -1.6203739878753339E+02    1.1958733776893954E+01    1.1409748307284322E+02
Cs   -5.7411401588710916E+01    6.2991817826985915E+01   -1.7135635724240463E+00
Cs   -1.9194679833739386E+02    7.1160987146856058E+01   -5.7105001966690727E+00
Cs   -1.3019921034743777E+02    2.9831573147507764E+00    1.0462509529518871E+02
Cs   -1.7469340599111200E+02    2.5895109463415349E+02    1.9832258288642699E+01
Cs   -2.1685665686535717E+02    2.3623782634492682E+02    8.4260639053124635E+01
Cs   -3.9033107458691507E+02    2.5383636169986812E+02    1.5814751637811921E+02
Cs    8.6599920714309150E+01   -7.7215768493410351E+01   -1.3221532745639328E+02
Cs    5.3606025371447181E+00   -7.3536141858048921E+01    9.4916235398188515E+00
Cs    4.6168429756362031E+01   -3.7164402455739314E+01    2.5411740191229867E+01
Cs    1.2735526358070601E+01   -1.0861054957189653E+01   -4.6641727422060235E+01
Cs   -7.9612564689069953E-01    2.8614435402531228E+01    1.2380193462034306E+01
Cs   -7.7630903331673423E+01    6.9352447270859088E+01    6.8868692204161462E+01
Cs   -6.6918911906737264E+01    1.5258570301547090E+02    3.1633745308763817E+01
Cs   -4.4097186993591038E+01    1.5113625250583038E+02    5.4149741845666369E+01
Cs   -1.5487771633288867E+02    1.7957089214529523E+02    1.6582521587829697E+02
Cs    1.8710754830815185E+02   -1.7638350803906752E+02   -9.6246133712234723E+01
Cs    2.1889356317318698E+02   -1.4817694762415684E+02   -2.9711850306457379E+01
Cs    1.8986913198262226E+02   -1.2561552233520486E+02    1.8198762491463956E+01
Cs    2.1263223593355497E+02   -6.3473934494168148E+01   -3.2719821515577515E+01
Cs    1.8565284186147775E+01    1.5801604778021188E+01    3.6560177256584730E+01
Cs    2.2171221025225748E+01    7.6028336688245489E+01    7.3349267031886981E+01
Cs    1.5879665064294281E+02    1.1521752973591808E+02   -2.3909368765055870E+01
Cs   -1.3836873573428521E+01    1.7039200371815733E+02    3.8512259088942962E+01
Cs    1.2040855660265079E+01    1.8448860634407723E+02    7.4846097320114652E+01
Cs   -1.3437131919949502E+02   -1.1350034979956227E+02   -4.7336179568819318E+01
Cs   -6.7419393482760782E+01   -1.6517564821552699E+02    8.1203385647189151E+01
Cs   -2.3533049491811374E+02    1.8096975274136145E+01    1.0361933555489557E+02
Cs   -2.3175376736494869E+02    2.4636963658560649E+01   -5.5864687181387396E+01
Cs   -2.1273780051270185E+02    4.7920672344441357E+01    6.0843541991875846E+01
Cs   -1.7408874954160277E+02    1.2235771897581477E+01    8.3108088342758307E+01
Cs   -2.1226782520636158E+02    2.3085861451969839E+02    4.3468391330024787E+01
Cs   -1.4764056391975828E+02    2.5787951784689869E+02    4.0484185093658418E+01
Cs   -1.9940087750658651E+02    1.7220351248787344E+02    1.4116998034465277E+02
Cs    1.8721934929611443E+01   -1.4110368650266420E+02   -6.2423497797471704E+01
Cs   -4.7505169204147052E+01   -1.5386922295605797E+02   -2.7726656234759552E+01
Cs    4.1633173497408038E+01   -1.8124496655127652E+02   -2.2021656340621053E+01
Cs    2.2047654753308979E+01   -4.8514326814514902E+01   -1.6090289278448093E+01
Cs   -6.7756497805944235E+01   -4.0461798554364037E+01    3.1634827917643702E+00
Cs   -6.1039388276783946E+01   -5.6097020432037922E+01   -4.7200809031300874E+00
Cs    1.6979743637026090E+01    6.3540477639128511E+01   -5.4457131833008440E+01
Cs   -3.5875146926162074E+01    8.1905977358251477E+01   -3.1344574242116320E+01
Cs   -1.4925095065259964E+02    2.4405525212709270E+02    8.1009350861387020E+01
Cs    1.1792595051392605E+02   -2.4958218303574975E+02   -9.0049363685150126E+01
Cs    1.6338747800428325E+02   -1.7620087179602828E+02   -6.8929547966701051E+01
Cs    1.4822751036807350E+02   -1.5697643147488654E+02   -6.7078594916846397E+00
Cs    9.9804564535710952E+01   -9.3434618834962166E+01   -1.2065715906046539E+02
Cs    3.7199695303293431E+01   -5.8390990431756286E+01   -2.9942141952847479E+01
Cs    6.4643262715575647E+00    2.5796625908174502E+01    1.6479112678266535E+01
Cs    9.2316851123937326E+01    3.9954789633310718E+01   -7.5453662259964972E+01
Cs    5.2817721815830865E+01    4.0442244464941318E+01   -9.0651686638452009E+00
Cs   -3.5105292419581495E+01    1.9026880518860028E+02    1.0304417624686553E+02
Br   -1.0765805555833327E+02   -1.3861233065379500E+02   -5.3260763360303358E+01
Br   -2.0500003960135848E+02    1.8053335306434636E+01    4.7966641560963829E+01
Br   -2.0569969580758507E+02   -1.4361178169104065E+01    6.9107545157204171E+01
Br   -1.3671349638860571E+02    8.6268534743094119E+00   -4.7131283884341094E+01
Br   -1.9431911704690285E+02    7.4646710228727883E+01    1.4227863911831715E+01
Br   -1.6611555708463575E+02    1.2117360028656210E+01    2.6522913929671404E+01
Br   -1.1411993801779489E+02    1.4368107691583410E+02   -4.1122389798931049E+00
Br   -2.3405251518464684E+02    2.7693274854514175E+02    6.6205243403543719E+01
Br   -2.6211110196985828E+02    2.7329139749205484E+02    1.0902196210571630E+02
Br   -2.6988010229083457E+01   -9.5796028232712004E+01   -9.1759778057655453E+01
Br   -2.4359597167726054E+01   -8.5363937665463823E+01   -3.6665694247631237E+01
Br   -6.7413830963814945E+01   -7.1834863672134361E+01   -5.3750495771228668E-01
Br    8.2559719518566197E+01   -8.4482561066602699E+01   -1.2696932700402304E+02
Br   -8.9015735775429263E+00    1.5181649001007438E+01    8.9742793126074165E+00
Br   -2.2231215691712713E+01    1.9744838648147798E+01    4.6219005819197768E+01
Br   -8.4300682674044822E+01    1.1642390609119424E+02   -1.0414363370550481E+01
Br    4.1549758882651888E+00    1.5780390221696706E+02    2.7596312798657653E+01
Br   -1.5757093084086887E+02    2.5422838744120645E+02    8.2627005481532777E+01
Br    2.2474830666385785E+02   -1.2713199498029208E+02   -9.8679479530974149E+01
Br    1.5978907641803733E+02   -1.8325595867943699E+02   -3.7568708459514113E+01
Br    1.5718519673376525E+02   -1.6075522954864201E+02   -2.4793999756648230E+01
Br    2.0301808368327340E+02   -5.7883315345190354E+01   -6.0393245670939294E+01
Br    1.4846239006099327E+02   -5.0360462451280974E+01   -8.7610776895780930E+01
Br    1.3940252710049526E+01   -6.0631330039956168E+00    2.2603123453230403E+01
Br    5.3194020810450382E+01    1.1507535278409442E+02   -5.4886073627510555E+01
Br   -1.1907121611714672E+01    1.5545086076808644E+02   -2.0987044981478775E+01
Br   -1.4060945359339931E+02    2.1665433951456208E+02    1.1545412331790031E+02
Br   -9.4522129299914326E+01   -1.7123271762556777E+02   -1.2728467121715461E+01
Br   -6.9576105177688731E+01   -6.1107672494363655E+01   -1.2089263186765617E+01
Br   -2.5424124534415782E+02    3.1920336584403771E+01    7.6964152270328952E+01
Br   -2.4670175790790518E+02    5.5049658348531096E+01    8.8213017956769903E+01
Br   -2.6745118479245917E+02    5.4628957880794502E+01    2.6366841463882547E+01
Br   -1.9516743141368897E+02   -2.6562881914820530E+01    6.9341853458747693E+01
Br   -2.2706680393481517E+02    2.2101122696973300E+02    2.9245581879274663E+01
Br   -2.3730181304235785E+02    2.0729810414238156E+02    9.8860700633106617E+01
Br   -4.1220353989433318E+02    2.3977873422919001E+02    1.7651580465117621E+02
Br    6.2056230589696648E+00   -1.4917384878707253E+02   -7.9489502298843291E+01
Br    1.9160854000153822E+02   -1.8139448410493131E+02   -5.9978141949405298E+01
Br   -5.8285010534437582E+01   -1.0144546523679955E+02    8.9452292460995338E+01
Br    1.8183278004881267E+01    2.6765301169977458E+00   -8.3973747391551839E+01
Br   -1.8243211934009159E+02    3.9107859757021721E+01    4.9735221219849379E+01
Br   -6.7479489584862677E+01    4.0177132366757085E+01    3.8152195725631643E+01
Br   -1.5636027343548062E+02    2.4430121551989839E+02    6.6831475461474099E+00
Br    7.1572425970283975E+00    1.5477289479992854E+02    3.7126637949633363E+01
Br   -1.4898230318453071E+02    1.5586383498716100E+02    1.5236553850277576E+02
Br    1.7257505137861710E+02   -1.8571589436799906E+02   -9.3028215166751977E+01
Br    2.3790226648450573E+02   -1.8034441982285605E+02   -3.3070208515238527E+01
Br    1.1948922013960922E+02   -1.6619606791293924E+02    6.5751623289693555E+00
Br    1.0039219954652894E+02   -2.7431655639743173E+01   -6.5353049310386297E+01
Br    3.8797693246740337E+01   -3.9649954068368153E+01   -4.6638786744297590E+01
Br    1.0170951696566624E+01    3.3002745017713309E+01    1.4463566218806403E+02