 # Version information for this restart file 
 # current date 2020-12-23 15:01:24.656
 # current working dir /Users/bvanbeek/Downloads/MM_MD_workdir/md
 # Program compiled at                             Fri Apr 19 11:24:34 CEST 2019
 # Program compiled on                                             192.168.1.124
 # Program compiled for                           Darwin-IntelMacintosh-gfortran
 # Source code revision number                                         svn:18464
 &GLOBAL
   PRINT_LEVEL  LOW
   PROJECT_NAME cp2k
   RUN_TYPE  MD
 &END GLOBAL
 &MOTION
   &MD
     ENSEMBLE  NPT_F
     STEPS  10000
     TIMESTEP     2.4999999999999996E+00
     STEP_START_VAL  6500
     TIME_START_VAL     1.6249999999999092E+04
     ECONS_START_VAL    -5.5495911227455137E+00
     TEMPERATURE     3.0000000000000000E+02
     &BAROSTAT
       PRESSURE     1.0100000000000000E+00
       TIMECON     4.9999999999999994E+02
       &VELOCITY
             1.6874926366616915E-07   -2.8606523357308713E-06    3.9525879826529918E-07   -2.8606523357308683E-06 \
            -1.1579023000126426E-06    2.2267190260105765E-06    3.9525879826529955E-07    2.2267190260105765E-06   -3.3789167625513524E-06
       &END VELOCITY
       &MASS
             2.1920353963970435E+08    2.1920353963970435E+08    2.1920353963970435E+08    2.1920353963970435E+08 \
             2.1920353963970435E+08    2.1920353963970435E+08    2.1920353963970435E+08    2.1920353963970435E+08    2.1920353963970435E+08
       &END MASS
       &THERMOSTAT
         TYPE  CSVR
         &CSVR
           TIMECON     9.6755373060191392E+00
           &THERMOSTAT_ENERGY
                 3.8854710865789205E-01
           &END THERMOSTAT_ENERGY
           &RNG_INIT
Wiener process for Thermostat # 1        1 F T F   1.0275560698650466E-01        3593605554.0        3562837184.0        1232366717.0        4133449056.0        4203014890.0        4244591871.0             12345.0             12345.0             12345.0             12345.0             12345.0             12345.0             12345.0             12345.0             12345.0             12345.0             12345.0             12345.0
           &END RNG_INIT
         &END CSVR
       &END THERMOSTAT
     &END BAROSTAT
     &THERMOSTAT
       TYPE  CSVR
       &CSVR
         TIMECON     4.9999999999999994E+02
         &THERMOSTAT_ENERGY
              -3.3750144902938053E+00
         &END THERMOSTAT_ENERGY
         &RNG_INIT
Wiener process for Thermostat # 1        1 F T F  -3.6412592947429046E-01        2953512173.0        3001252978.0        3886724552.0        2661095304.0        1633277268.0        2475413900.0             12345.0             12345.0             12345.0             12345.0             12345.0             12345.0             12345.0             12345.0             12345.0             12345.0             12345.0             12345.0
         &END RNG_INIT
       &END CSVR
       &PRINT
         &TEMPERATURE  ON
           FILENAME 
           &EACH
             MD  10
           &END EACH
         &END TEMPERATURE
       &END PRINT
     &END THERMOSTAT
     &AVERAGES  T
       &RESTART_AVERAGES
         ITIMES_START  1
         AVECPU     3.4020764923152834E-02
         AVEHUGONIOT     0.0000000000000000E+00
         AVETEMP_BARO     1.0550388878175017E+03
         AVEPOT    -4.5734393536372959E+00
         AVEKIN     6.5832902291722095E-01
         AVETEMP     2.5712259173280660E+02
         AVEKIN_QM     0.0000000000000000E+00
         AVETEMP_QM     0.0000000000000000E+00
         AVEVOL     8.8586362474181019E+06
         AVECELL_A     1.3564378989412967E+02
         AVECELL_B     1.5757571544757286E+02
         AVECELL_C     9.1590753825273296E+01
         AVEALPHA     8.1591070555786317E+01
         AVEBETA     9.9745188448905267E+01
         AVEGAMMA     9.7352148039210874E+01
         AVE_ECONS    -1.4207875111387551E+00
         AVE_PRESS     3.8392166300655481E+00
         AVE_PXX     3.2475743072660279E+00
       &END RESTART_AVERAGES
     &END AVERAGES
   &END MD
   &PRINT
     &TRAJECTORY  ON
       &EACH
         MD  10
       &END EACH
     &END TRAJECTORY
     &CELL  ON
       FILENAME 
       &EACH
         MD  10
       &END EACH
     &END CELL
     &FORCES  ON
       FILENAME 
       &EACH
         MD  10
       &END EACH
     &END FORCES
   &END PRINT
 &END MOTION
 &FORCE_EVAL
   METHOD  FIST
   STRESS_TENSOR  ANALYTICAL
   &MM
     &FORCEFIELD
       VDW_SCALE14     1.0000000000000000E+00
       EI_SCALE14     1.0000000000000000E+00
       SHIFT_CUTOFF  T
       DO_NONBONDED  T
       IGNORE_MISSING_CRITICAL_PARAMS  T
       &SPLINE
         R0_NB     1.0000000000000001E-01
       &END SPLINE
       &NONBONDED
         &LENNARD-JONES
           ATOMS Cs Cs
           EPSILON     2.2644852172126850E+01
           SIGMA     5.8500000000000005E+00
         &END LENNARD-JONES
         &LENNARD-JONES
           ATOMS Cs Pb
           EPSILON     8.6920055954630953E+01
           SIGMA     5.1000000000000005E+00
         &END LENNARD-JONES
         &LENNARD-JONES
           ATOMS Br Pb
           EPSILON     2.0528187276773045E+02
           SIGMA     2.9000000000000004E+00
         &END LENNARD-JONES
         &LENNARD-JONES
           ATOMS Br Cs
           EPSILON     5.3481070753900497E+01
           SIGMA     3.8500000000000005E+00
         &END LENNARD-JONES
         &LENNARD-JONES
           ATOMS Br Br
           EPSILON     1.2630795322675199E+02
           SIGMA     4.2599999999999998E+00
         &END LENNARD-JONES
         &LENNARD-JONES
           ATOMS Pb Pb
           EPSILON     3.3363415533600221E+02
           SIGMA     5.9800000000000004E+00
         &END LENNARD-JONES
       &END NONBONDED
       &CHARGE
         ATOM Cs
         CHARGE     2.0000000000000001E-01
       &END CHARGE
       &CHARGE
         ATOM Pb
         CHARGE     4.0000000000000002E-01
       &END CHARGE
       &CHARGE
         ATOM Br
         CHARGE    -2.0000000000000001E-01
       &END CHARGE
     &END FORCEFIELD
     &POISSON
       PERIODIC  XYZ
       &EWALD
         EWALD_TYPE  SPME
         GMAX  22
         O_SPLINE  4
       &END EWALD
     &END POISSON
     &PRINT
       &FF_INFO  LOW
         SPLINE_INFO  F
         SPLINE_DATA  F
       &END FF_INFO
     &END PRINT
   &END MM
   &SUBSYS
     &CELL
       A     4.3415078657381247E+02   -1.2185918239099890E+02   -1.0732121483949183E+02
       B    -1.6897264178131329E+02    4.1473436312483454E+02    8.7104358120136865E+01
       C    -1.0939743787183514E+02    6.9276330073814876E+01    1.7629406452070586E+02
       PERIODIC  XYZ
       MULTIPLE_UNIT_CELL  1 1 1
     &END CELL
     &COORD
Br   -2.1467053541496534E+02    2.0690705973038860E+02    8.9583068681790664E+01
Br   -2.6033162203403208E+02    2.3332705773188212E+02    1.5785493131466117E+02
Br    5.5994374369197239E+01   -1.4194604250980905E+02   -5.7619989465634497E+01
Br   -5.8331730242693631E+01   -5.2251077722847015E+01   -2.4182478392150331E+00
Br    7.5550796512566265E+01   -9.8950086006385746E+01    3.9950025589450537E+00
Br    4.0538248337187170E+01   -2.2596626491871263E+00   -7.1794196742042132E+01
Br   -2.5737767525777464E+00    3.0970033542135291E+00   -1.7248418850636934E+01
Br   -1.5942371584536806E+01    1.3661421005063048E+01    4.7369712525264951E+01
Br   -6.5054276300834005E+01    1.3887697325085202E+02    2.7378705607049604E+01
Br   -7.3252862226965135E+01    1.5749250801938902E+02    6.5309569114301112E+01
Br   -9.2754527790444470E+01    1.5246527530062792E+02    8.3876453375438331E+01
Br    1.8320473065843484E+02   -1.7250335668761824E+02   -1.0864404463600904E+02
Br    1.3223841125570129E+02   -7.2018519232625394E+01   -3.2316572315541222E+01
Br    1.7934079888777350E+02   -1.3026422456150078E+02   -1.5902710045983468E+01
Br    1.3400915621257701E+02   -4.2890052342220940E+01   -6.0209287470331013E+01
Br    1.4084362802928081E+02   -1.9024345997663072E+01   -3.6164021297357344E+01
Br    6.3672996383533594E+01    2.5659730420155352E+01   -2.8216881939167786E+00
Br    8.0574933037987634E+01    1.5311623507286197E+02   -2.5150602698184876E+01
Br    1.5244808784034433E+02    1.4326486383264867E+02   -2.9789661166970273E+01
Br    2.4178194180098505E+01    1.1161863167362850E+02    3.6094057151513880E+01
Pb   -1.6757892108363671E+02   -7.2564647223756040E+01   -4.5546477802728326E+01
Pb   -9.9604977274855571E+01   -1.1078086392108517E+02    1.9923506126481374E+01
Pb   -2.0511502278288239E+02   -3.4345375665885925E+01    8.0501594602368144E+01
Pb   -5.0618820700362605E+01   -1.0911893264354987E+02   -9.8549978916611494E+01
Pb   -2.2597125894761334E+02    6.8137407388056417E+01    3.1103780810488587E+01
Pb   -1.6062808829920723E+02    1.7027519950384349E+01    4.9112045295192985E+01
Pb   -2.8984561403867690E+02    1.3287515647630013E+02    3.5791662759184764E+00
Pb   -2.3526014780807517E+02    2.0160997559347226E+02    5.0471434063264056E+01
Pb   -2.2101353131028162E+02    1.8138832803447997E+02    9.6677174998800339E+01
Pb    4.3260024169632089E+01   -1.5259368872436360E+02   -8.8622931178686372E+01
Pb   -9.0552542623143726E+00   -1.1491566701514233E+02   -2.4255683913910698E+01
Pb   -7.3502768302405613E+01   -1.0490363055774797E+02    3.1759634260907397E+01
Pb    4.4984157209927154E+01   -3.4664866331620232E+01   -1.1096447221141352E+02
Pb   -5.1570980590975715E+01    2.5678486369922826E+01   -1.6152027483095317E+01
Pb   -1.5172477634199996E+02    4.2701525805793700E+01    4.2612436685909984E+01
Pb   -8.4933180139022198E+01    1.0971174882585828E+02   -1.3629592777620672E+01
Pb   -1.2782557258622933E+02    2.3013990959017553E+02    3.1676279045692809E+01
Pb   -2.0568316227344607E+02    2.2377375678892963E+02    1.1521122937106223E+02
Pb    1.9575385118355464E+02   -2.3974354719452711E+02   -1.6078164704661273E+02
Pb    1.5598827840933572E+02   -1.7776066805938237E+02   -8.6157733630842017E+01
Pb    1.7052405292763879E+02   -1.5403870719382073E+02   -3.6592137002926037E+01
Pb    1.1531543416498853E+02   -4.4960754528887101E+01   -5.2405416503340930E+01
Pb    1.3901386145917462E+02   -5.0035018037909097E+01   -5.3838182268247529E+01
Pb   -1.0107762005237444E+01    1.3709562638399385E+01    1.7643669692198443E+01
Pb    7.5505662367168611E+01    1.2180958543121754E+02   -7.5805456265917357E+01
Pb    2.1259233728004538E+01    1.3095631807970580E+02   -3.8758657685731656E+01
Pb    6.0306295531227807E+00    1.1390355823791498E+02    1.7832864154689297E+01
Pb   -1.2895791502044202E+02   -1.1245160112018765E+02   -3.5680548771290169E+01
Pb   -8.3643806210232029E+01   -1.1297263556047342E+02    1.1575764617932649E+01
Pb   -9.0641093766834601E+01   -6.5735196428131047E+01    7.3606514844744282E+01
Pb   -1.3426876109521265E+02   -2.7794335984167367E+00   -3.4945608576302313E+01
Pb   -1.2811949195245654E+02    3.0198209099099511E+01    2.3630195160934608E+01
Pb   -9.7720336644277779E+01   -2.9620517099237585E+01    6.2779263469409294E+01
Pb   -1.4152416861651668E+02    1.4787288392270284E+02   -1.0865911952562163E+01
Pb   -2.1708070753930090E+02    2.0465626606171156E+02    8.9786371486699892E+01
Pb   -2.4614989445216179E+02    2.0900673288492192E+02    1.1662952347625799E+02
Pb    5.0841899546458556E+01   -1.4634915120262781E+02   -5.9641709527303462E+01
Pb    1.6845023829924534E+02   -1.5753052848306692E+02   -5.7172697098507292E+01
Pb    8.5668439629446667E+01   -1.3634117968067537E+02    1.1688951175340982E+01
Pb    2.5161925389708873E+01    2.6343099173173945E-01   -7.5491644089094947E+01
Pb    4.2162367619389229E-01    1.5802898022492041E+01   -1.4045536267212754E+01
Pb   -1.3470437787688056E+01    1.2211843611992508E+01    4.7226519082445783E+01
Pb   -6.7492312603951206E+01    1.3685828082364506E+02    2.6221598441309428E+01
Pb    7.5582229008831647E-01    1.4356308956731161E+02    2.5335873401535494E+01
Pb   -9.3818796289904000E+01    1.5439510303997662E+02    8.1053116253409286E+01
Pb    1.7485916216788078E+02   -1.7138224152566690E+02   -1.0559301171720951E+02
Pb    2.1683866053389559E+02   -1.5472589650066655E+02   -3.9769358026475444E+01
Pb    1.8074990072052469E+02   -1.2724681279909575E+02   -1.5737302475589765E+01
Pb    1.7890924815618732E+02   -6.8115464655070369E+01   -7.6692283226915137E+01
Pb    1.7975421114281875E+02   -6.3068940627045443E+01   -5.5308707287212457E+01
Pb    2.0821373752917079E+01    4.2802209403739608E+00    3.4639500401469476E+01
Pb    7.7593760381596127E+01    1.1473300682795298E+02   -4.8161508823863066E+01
Pb    1.9018181640965494E+02    6.0360255502372965E+01   -3.7670193494523893E+01
Pb    1.0524040132572850E+01    1.1880444600979861E+02    3.1058087084711314E+01
Pb   -8.9486318864963067E+01   -1.8262130503416643E+02   -8.6794799694501279E+01
Pb   -1.3075404141552241E+02   -1.1557604492584167E+02    6.7605081220888072E+00
Pb   -8.8209079933516009E+01   -2.0124822932284161E+02    3.3421938576139915E+01
Pb   -1.3950653701601999E+02   -6.8936707420441621E+01   -8.1067873196501708E+01
Pb   -2.1312685878545250E+02    2.1257647746715939E+01    2.0303031374600817E+01
Pb   -1.8720908573929768E+02   -2.2274034899038973E+01    4.7714474286715976E+01
Pb   -2.9863797814422361E+02    1.0456016133243129E+02    7.1337214133378595E+00
Pb   -2.5132323454595965E+02    1.0186429482091719E+02    8.2884048508863245E+01
Pb   -2.4223038529602991E+02    1.3763504798506005E+02    7.8114971447442386E+01
Pb    4.8746658372765282E+01   -2.2056215278311174E+02   -1.0119147096052177E+02
Pb    4.9121223189158041E+00   -1.5650296357377411E+02   -6.4085006119564795E+01
Pb   -4.7028608642548107E+01   -1.4515441682441170E+02    9.1781068024246135E+00
Pb   -2.4283953883190243E+01   -9.4300990223036379E+01   -8.3462467075349593E+01
Pb   -5.6130626148841863E+01   -4.9079199429518837E+01   -2.8293291018036562E+00
Pb   -5.6691892387950539E+01   -4.5569975276113603E+01    2.7520712230660083E+00
Pb   -3.9250679292682605E+01    6.6350002568722488E+01   -4.3815458257194813E+01
Pb   -4.0441554218261082E+01    3.4425772637029375E+01   -2.1253277617342253E+01
Pb   -1.2846629351879520E+02    1.4110117835386603E+02    9.8094959453094120E+01
Pb    2.0943858703124528E+02   -2.8158019561457633E+02   -1.5682989649638634E+02
Pb    6.3978036628905905E+01   -1.9871970217009311E+02   -6.4463415340877575E+01
Pb    1.6629125925542510E+02   -1.7875728019450332E+02   -3.8578425089437737E+01
Pb    1.2054846947492170E+02   -7.1904417230967340E+01   -1.3979445446148790E+02
Pb    5.9068358060177346E+01   -4.6892596252316217E+01   -3.4849877515168245E+01
Pb    1.2452868371996807E+02   -8.9442079852835789E+01   -2.6482967353753889E+01
Pb    1.3472610727594156E+02    8.8797804199097874E-01   -8.5382789709634551E+01
Pb    8.9135803174726732E+01    1.0804511154844041E+01   -2.1452643619668333E+01
Pb    6.4059061855986911E+01    1.4900370397512310E+01   -6.7839542854795782E+00
Pb   -9.6295373750677868E+01   -1.1300077009801964E+02   -5.8466959112774738E+01
Pb   -1.5422356314145638E+01   -1.7411546259420817E+02   -2.8995035450062375E+01
Pb   -8.9573057074120456E+01   -1.8006766663722377E+02    6.8714896449851807E+01
Pb   -5.7282814115827549E+01   -7.9564389251734696E+01   -7.2038980484177685E+01
Pb   -1.0567511519080671E+02   -5.0685720349365887E+01   -5.4355660048577894E+00
Pb   -1.6663023327592603E+02   -3.6210051371042454E+01    7.4807103559472139E+01
Pb   -4.2370768370523216E+01    7.1571818254963702E+01   -2.0761600535738882E+01
Pb   -1.5971458484384763E+02    9.2200645609274630E+01    4.8540092413685315E+01
Pb   -1.8054970736464475E+02    1.2667685556506410E+02    1.3456146603015694E+02
Pb    4.0340482716483649E+01   -1.6749226517993353E+02   -7.9183718668216144E+01
Pb    4.4234648888433441E+01   -2.0247501978674373E+02   -4.2447372367450718E+01
Pb    7.7858873949747419E+01   -2.2435877029148881E+02    2.3059173754470059E+01
Pb    1.8586356321340194E+01   -1.1354127754681157E+02   -9.1602410048860961E+01
Pb   -2.1442004810338332E+01   -2.4919883716006201E+01    1.6096709307246567E+01
Pb    5.0594607264790000E+01   -8.4038275153851984E+01    8.9955754370685241E+00
Pb    4.6489563135484396E+01    6.4141820601812313E+01   -5.7214274931795558E+01
Pb    3.4684256886389313E+01    5.9976766758125066E+00   -4.9614130571525124E+00
Pb   -8.6674305053929345E+01    1.1276990074193101E+02    7.5716727391024719E+01
Pb    2.4774923996540804E+02   -2.6393306982596641E+02   -1.1226979366161274E+02
Pb    1.5900265483931167E+02   -2.4941366082506136E+02   -3.3520385255253288E+01
Pb    1.7729031916065327E+02   -2.4036178075932310E+02   -1.8879909991311560E+01
Pb    2.2906666381003342E+02   -1.1423097310479200E+02   -1.0023778212048160E+02
Pb    1.4484234611375496E+02   -6.6961839612402443E+01   -3.3678849242467841E+01
Pb    8.8181569823048321E+01   -4.7697107439542002E+01    3.6209171926673328E+01
Pb    1.3593325075152418E+02   -4.4793105653670040E+01   -6.2254322681367114E+01
Pb    1.2369416161040017E+02   -2.4010860486379638E+01   -3.0136407534051202E+01
Pb    8.8812217524140760E+00    1.0784963259857834E+02    7.3904225628708616E+01
Cs   -2.2678999134212820E+01   -2.0970856721040343E+02   -9.4055216029456318E+01
Cs   -5.0975714983711519E+01   -9.4096543625329161E+01   -1.4141965371312580E+01
Cs   -1.3145062880067837E+02   -4.0230576227785754E+01    9.0282103995043499E+01
Cs   -1.4878215475436127E+01    8.2786471304148801E+00   -6.5095121952177465E+01
Cs   -1.8065508074868841E+01   -5.1766467480062879E+01   -4.8094117697332699E+01
Cs   -1.3632873429862639E+02   -1.4953166659888343E+01    5.5683536209676689E+01
Cs   -8.9759931489107998E+01    4.2695489779325172E+01   -3.8806137438641244E+01
Cs   -1.2049905380286172E+02    1.1416084803868669E+02    4.0025039394494077E-01
Cs   -2.0745353302397621E+02    1.6333056226859495E+02    4.6092021795390750E+01
Cs    1.7062060383966502E+02   -2.7057911703511337E+02   -1.4420734674921192E+02
Cs    5.6754572920024398E+00   -1.5523497844337723E+02   -3.6541746203375375E+01
Cs    1.3630332430886267E+02   -1.7327284893181579E+02   -4.8297459351088776E+01
Cs    6.3281966513576926E+01   -3.4998381136288593E+01   -8.5742109111812482E+01
Cs   -2.1010469838309760E+01    8.4563001748505293E+00   -7.1167864290806468E+00
Cs   -3.2790018974121629E+01    1.4942066236042381E+01    5.2867125774048041E+01
Cs    1.1601349134212567E+01    7.4657124545216362E+01   -8.0870154998063413E+01
Cs   -1.6085594927467849E+01    1.2414851060991910E+02   -3.9180667351962710E+00
Cs   -8.5495855895978451E+01    1.1208149817480155E+02    4.7378178422523035E+01
Cs    2.5396897778917372E+02   -2.6063011798868638E+02   -1.8067950949664751E+02
Cs    1.6477991927208865E+02   -2.1043307786373794E+02   -1.0587313317878581E+02
Cs    2.1985069796006024E+02   -2.9461234292543793E+02   -7.3176476810971508E+01
Cs    1.5088590300342560E+02   -5.4806814558855407E+01   -9.4989533383847302E+01
Cs    1.9069214306870600E+02   -9.4347124391212745E+01   -6.2538271602886994E+01
Cs    1.4243542810807364E+02   -6.2942743512953491E+01   -2.3957841790807311E+01
Cs    1.1650692207856495E+02    5.0888352600753279E+01   -1.0470266556059132E+01
Cs    1.3838030310622986E+02    4.3372414010752472E+01    3.0874043367878681E+01
Cs    2.5884393436919780E+01    1.0197995109693149E+02    4.1945426737230726E+01
Cs    1.4254739610768569E+01   -7.5061721712958430E+01   -8.1010878338090563E+01
Cs    6.4148951526490421E+01   -6.3910457612342235E+01   -2.9003715532975185E+01
Cs   -5.2489719315238084E+01   -1.0746165695166097E+02    6.4882180036208609E+01
Cs   -1.0838063195014574E+02    1.0407432717100496E+01   -2.0760122491323692E+01
Cs   -1.1284013893506922E+02    1.3354435353940679E+02    7.3680272835276853E+01
Cs   -1.0822737827485480E+02    2.2038753573372560E+01    6.4419466626109511E+01
Cs   -1.0811176380650350E+02    2.0699368496012897E+02    4.1866540263924819E+00
Cs   -1.0155873890942900E+02    1.9494583904331577E+02    9.6484659650329959E+01
Cs   -1.5237040120184753E+02    2.6813572566231494E+02    1.1518173422760466E+02
Cs    2.0637224096693950E+02   -1.1138869116709995E+02   -1.0520034391539589E+02
Cs    1.3206687662295334E+02   -6.7169119919264574E+01   -5.0315992255406385E+01
Cs    8.2680749921899732E+01   -1.1316250384122320E+02   -6.2377691285283854E+00
Cs    6.3203018032540555E+01    5.1406019961750054E+01   -5.5171834963070772E+01
Cs    7.6286976838327192E+01   -4.5163528865395129E+01   -2.2274840584235712E+01
Cs   -1.7993941902122675E+01    9.0758382331293220E+01    5.2162460507295052E+01
Cs    5.2056635946318313E+00    1.5518390089886248E+02   -3.6794432019741642E+01
Cs    4.3307255102799580E+01    1.5609151055078033E+02   -3.5751803451820003E+01
Cs   -2.2681767286480053E+01    2.2017709891908467E+02    5.2044492644424437E+01
Cs    2.5377816075011393E+02   -1.1590303915482012E+02   -9.0933007324661077E+01
Cs    3.3827765957245572E+02   -1.7733734753503600E+02   -1.3632376479480342E+02
Cs    1.4485208110739077E+02   -1.0093352062103594E+02    2.0761859966997516E+01
Cs    2.4126792513116430E+02   -1.1241659692934992E+02   -1.0692103895067241E+02
Cs    2.2644758971854785E+02   -6.1273577456605871E+01   -8.8597953536951749E+01
Cs    2.5982546261692721E+02   -6.0806145198364099E+01   -1.1836936311698095E+01
Cs    1.5680514123861187E+02    7.3646545980498530E+01   -6.7068005221407020E+01
Cs    1.6557358700289521E+02    1.2987823480752320E+02   -2.7241231441086146E+01
Cs    1.4638286304794522E+02    1.1751749412925092E+02    3.3068279067403289E+01
Cs   -3.1297269860754330E+01   -9.6285045907613039E+01   -7.1767119218788110E+01
Cs   -1.1751350667846029E+02   -3.3508075240207106E+01    1.1086682058735036E+01
Cs   -1.7458767971994919E+02   -1.7851265320766224E+01    1.0103226292709641E+02
Cs   -7.1653469497161524E+01    5.0508976094925977E+01   -9.2687683706261268E+00
Cs   -1.8228809502230280E+02    5.2181608401079131E+01    3.4269083370021249E+01
Cs   -1.2764004166923024E+02    6.9670144187104892E+00    9.0388004549929789E+01
Cs   -1.6180283520318193E+02    2.4121287108514326E+02    2.5435058839227729E+01
Cs   -2.0246215593192525E+02    2.1167377889154062E+02    9.3001165624179805E+01
Cs   -3.7182282260415872E+02    2.1315228894260903E+02    1.7090084089848386E+02
Cs    7.9330514177668917E+01   -7.6871385859155652E+01   -1.1553846455606268E+02
Cs    5.5929731121134632E+00   -6.8336378892950975E+01    7.1524975044486592E+00
Cs    3.1307986909314764E+01   -4.0112147686532253E+01    3.1653673232033995E+01
Cs    2.8621715562465159E+01   -4.4269611576432277E+00   -4.4978743274002014E+01
Cs   -2.4972550953089536E+00    4.0543788136483649E+01    2.0092569276329034E+01
Cs   -7.4959305649619949E+01    6.5616278026144712E+01    7.5412217021442430E+01
Cs   -6.1879233989483083E+01    1.5283201550332748E+02    2.7877674977459662E+01
Cs   -3.4507243073740995E+01    1.3864727598969804E+02    4.3186634497675549E+01
Cs   -1.4543691883156018E+02    1.7625693088882983E+02    1.5662546117037661E+02
Cs    1.8279789878102187E+02   -1.8137754581142823E+02   -1.0334815829912030E+02
Cs    2.1867470286456683E+02   -1.2381241490095063E+02   -2.8698050789841979E+01
Cs    1.8342070704562187E+02   -1.0818556446052932E+02    2.4475681908879636E+01
Cs    2.0179108709349478E+02   -3.8264522721774938E+01   -5.4799698146334151E+01
Cs    3.6976218295454771E+01    2.9909778246198186E+01    4.0720011606091951E+01
Cs    1.9402688805701420E+01    7.8611778909159312E+01    7.2310278662984217E+01
Cs    1.5294719799608197E+02    1.3146257328102581E+02   -3.9674778641931788E+01
Cs    6.3919742557576997E+00    1.6147840512295318E+02    2.6202054095219747E+01
Cs    1.7516522042250205E+01    1.7094642199996713E+02    8.9883923212883815E+01
Cs   -1.3911389288369287E+02   -1.2885428285145255E+02   -3.3796374479430028E+01
Cs   -8.7062402591385407E+01   -1.5613607450312995E+02    7.2474826517157467E+01
Cs   -2.4349817216105208E+02   -1.0876926271256151E+01    1.1796926657256290E+02
Cs   -2.1653874821265831E+02    9.5208347337084376E-01   -3.8810884962115637E+01
Cs   -2.1071999347390999E+02    3.4005267122500264E+01    6.0021914284614994E+01
Cs   -1.8547067483877328E+02   -4.5123239704385548E-01    8.2109554331618114E+01
Cs   -1.9990806573059530E+02    1.9786673425598408E+02    4.2320836122104069E+01
Cs   -1.4919171230406613E+02    2.1151909608707200E+02    4.4887219289646190E+01
Cs   -2.0580592135452346E+02    1.5244664227377820E+02    1.2896617502504714E+02
Cs    1.6272546345080034E+01   -1.3463118190209232E+02   -6.0527725316870416E+01
Cs   -4.0945096482740162E+01   -1.4499248547517226E+02   -2.3900905642119106E+01
Cs    3.6839963964528856E+01   -1.6408736958392637E+02   -9.0978292254320330E+00
Cs    1.4467527453007323E+01   -4.3385266425342010E+01   -2.9206825807540191E+01
Cs   -7.3239593868631843E+01   -3.7076056052621027E+01   -6.1371397743429803E+00
Cs   -5.5834897802247312E+01   -7.2293546058437073E+01    1.2223051499707092E+01
Cs    1.6265644706625661E+01    5.8774080598959479E+01   -4.3006100578993625E+01
Cs   -2.5241555747150034E+01    7.4917689740704887E+01   -1.2897867188834764E+01
Cs   -1.4219977242061040E+02    2.0432217775497028E+02    9.0170162044776177E+01
Cs    1.0221379892970921E+02   -2.3476433984484029E+02   -1.0364376480794027E+02
Cs    1.4201445614767414E+02   -1.5675423256710332E+02   -6.4069136625427433E+01
Cs    1.4103454162853359E+02   -1.4694879360869871E+02   -1.6809151977194094E+01
Cs    1.1136138574678232E+02   -7.7404095623903004E+01   -1.0245119295126364E+02
Cs    3.6827933246992849E+01   -4.6218866556388278E+01   -1.3265527005104945E+01
Cs    3.7757379533156001E+00   -8.8666468468954687E+00    2.8946642249832966E+01
Cs    9.7423296982170058E+01    4.7789356872365786E+01   -7.9012130752889348E+01
Cs    5.2563711632890637E+01    4.9461918992383971E+01   -1.5329704865104963E+01
Cs   -3.6297088318119094E+01    1.6806822188459762E+02    9.5470133727541707E+01
Br   -1.3064376296678910E+02   -1.1455648124822949E+02   -3.3559871535019596E+01
Br   -1.8400555104884734E+02   -2.3300053755036508E+01    4.4743005905698219E+01
Br   -2.0408868687210517E+02   -3.7086372966533915E+01    7.9352210617262756E+01
Br   -1.3443351786630933E+02   -3.2021198541803919E+00   -3.1853361967303588E+01
Br   -1.8573272545815186E+02    5.1849378482800219E+01    1.5384977965264140E+01
Br   -1.5756368058630275E+02    1.8514000180479872E+01    4.9187191842895395E+01
Br   -1.1230439841708336E+02    1.3551679738388080E+02   -1.3760220366448046E+01
Br   -2.1320620033293829E+02    2.0996930990170952E+02    8.4621474934040577E+01
Br   -2.4725886556579761E+02    2.0647424901656879E+02    1.1583197007123499E+02
Br   -2.5522130118227555E+01   -1.0212292534646795E+02   -8.0000223788356749E+01
Br   -2.2272150366453086E+01   -1.0689576514115578E+02   -2.6533630305776605E+01
Br   -5.5363900417362686E+01   -5.9435311702726182E+01    1.3039970388487795E+01
Br    8.6498623766054109E+01   -7.5940220118536800E+01   -1.0831896465134834E+02
Br    3.6960775623832358E+00    1.8071587541900200E+01   -6.2801597153042499E+00
Br   -2.7051000488550773E+01    1.3722170673440118E+01    5.4883332288573662E+01
Br   -8.3541842442127660E+01    1.0797889754180265E+02   -1.1543087814061231E+01
Br   -5.3983461187195425E-01    1.4018159988949208E+02    2.4989083423709523E+01
Br   -1.6806731234864543E+02    2.1444677586855715E+02    8.8386182591420521E+01
Br    2.0110437679101651E+02   -1.1006684722207687E+02   -1.0858846869714161E+02
Br    1.6318009104704916E+02   -1.7881177859191956E+02   -3.7430060232292519E+01
Br    1.6496422707653969E+02   -1.4794188440759575E+02   -1.7720329481395382E+01
Br    1.7738128555963422E+02   -6.5430985278503741E+01   -7.8877999115321828E+01
Br    1.4106387840660116E+02   -4.9993075160376748E+01   -5.5510498572753555E+01
Br    2.8641721590715139E+01    1.0740488243892639E+01    2.6347877761329478E+01
Br    7.5603252427571903E+01    1.1302948104294616E+02   -4.7316705047309298E+01
Br   -1.6065101058741302E+01    1.4218361267195431E+02   -2.6523408102882826E+01
Br   -1.2514730449004669E+02    2.0015302582138671E+02    9.6016725711465284E+01
Br   -9.8469099296328849E+01   -1.7577822435764406E+02   -1.4992713472278727E+01
Br   -6.8412590785001754E+01   -6.7694406472418990E+01    1.4621832062756289E+01
Br   -2.5219802147804572E+02   -6.1892537402185044E-01    9.5185971351094736E+01
Br   -2.2337521938528121E+02    6.6416656011332478E+01    3.1785947133576343E+01
Br   -2.5901372940078687E+02    3.9579155393720733E+01    4.9793941262631066E+01
Br   -1.5550886681310638E+02   -3.8082922100106231E+01    7.4653250149259961E+01
Br   -2.1904679019482720E+02    1.9338954512282200E+02    4.4051465447597124E+01
Br   -2.1239338022455397E+02    1.7507821938444434E+02    9.6470506770712362E+01
Br   -3.9204402242771215E+02    2.0238067041163134E+02    1.7618826412586756E+02
Br    2.1319435148766996E+01   -1.2897320238899852E+02   -5.8541986602838207E+01
Br    1.6910637518906896E+02   -1.5916309015238238E+02   -5.4625213386854341E+01
Br   -4.9788060069173831E+01   -1.0614871044530327E+02    7.9424657899097951E+01
Br    2.2491760757134497E+01    1.0930370945662671E+00   -7.5132754048784349E+01
Br   -1.5063958118568749E+02    5.0394444147284268E+01    5.1214486092919373E+01
Br   -6.1852087886855522E+01    3.3456225003785775E+01    6.3234365863906312E+01
Br   -1.4282871914131016E+02    2.2589957160846041E+02    3.8674917452889339E+01
Br    1.3977003422207765E+01    1.4212590359810613E+02    1.6206180787920154E+01
Br   -1.5029626026589565E+02    1.3405674898633421E+02    1.3482052690093789E+02
Br    1.5385913211820991E+02   -1.8050235151480456E+02   -8.5724644757651475E+01
Br    2.1448572851952900E+02   -1.6217384056316729E+02   -4.3246126411696757E+01
Br    9.3664320184221339E+01   -1.5875132571051293E+02    2.1408581978679706E+01
Br    1.3575636688142583E+02   -4.7264414508883881E+01   -6.4155124824845458E+01
Br    4.8041087675141043E+01   -5.2091500213281329E+01   -2.6373201465906686E+01
Br    8.6751796774161107E+00    2.6683430101336128E+01    1.2523128841970927E+02