 # Version information for this restart file 
 # current date 2020-12-23 15:02:03.648
 # current working dir /Users/bvanbeek/Downloads/MM_MD_workdir/md
 # Program compiled at                             Fri Apr 19 11:24:34 CEST 2019
 # Program compiled on                                             192.168.1.124
 # Program compiled for                           Darwin-IntelMacintosh-gfortran
 # Source code revision number                                         svn:18464
 &GLOBAL
   PRINT_LEVEL  LOW
   PROJECT_NAME cp2k
   RUN_TYPE  MD
 &END GLOBAL
 &MOTION
   &MD
     ENSEMBLE  NPT_F
     STEPS  10000
     TIMESTEP     2.4999999999999996E+00
     STEP_START_VAL  8500
     TIME_START_VAL     2.1249999999997028E+04
     ECONS_START_VAL    -5.5495911227455137E+00
     TEMPERATURE     3.0000000000000000E+02
     &BAROSTAT
       PRESSURE     1.0100000000000000E+00
       TIMECON     4.9999999999999994E+02
       &VELOCITY
             2.8645790586538774E-06   -2.2102998181729190E-06    3.6494501761522970E-07   -2.2102998181729182E-06 \
             1.0771473913375160E-06    1.8818462187261572E-06    3.6494501761522917E-07    1.8818462187261474E-06    1.4857338515668401E-06
       &END VELOCITY
       &MASS
             2.1920353963970435E+08    2.1920353963970435E+08    2.1920353963970435E+08    2.1920353963970435E+08 \
             2.1920353963970435E+08    2.1920353963970435E+08    2.1920353963970435E+08    2.1920353963970435E+08    2.1920353963970435E+08
       &END MASS
       &THERMOSTAT
         TYPE  CSVR
         &CSVR
           TIMECON     9.6755373060191392E+00
           &THERMOSTAT_ENERGY
                 3.9293384267981274E-01
           &END THERMOSTAT_ENERGY
           &RNG_INIT
Wiener process for Thermostat # 1        1 F T F  -1.0030682272254483E+00        3321254173.0        2934207649.0        2871102834.0         567455691.0        1430383168.0        3049965382.0             12345.0             12345.0             12345.0             12345.0             12345.0             12345.0             12345.0             12345.0             12345.0             12345.0             12345.0             12345.0
           &END RNG_INIT
         &END CSVR
       &END THERMOSTAT
     &END BAROSTAT
     &THERMOSTAT
       TYPE  CSVR
       &CSVR
         TIMECON     4.9999999999999994E+02
         &THERMOSTAT_ENERGY
              -3.7052416942136994E+00
         &END THERMOSTAT_ENERGY
         &RNG_INIT
Wiener process for Thermostat # 1        1 F T F   2.5450733820135524E-01        1657654166.0        3321859981.0        1110765474.0        2418773081.0        1056225339.0        1792978370.0             12345.0             12345.0             12345.0             12345.0             12345.0             12345.0             12345.0             12345.0             12345.0             12345.0             12345.0             12345.0
         &END RNG_INIT
       &END CSVR
       &PRINT
         &TEMPERATURE  ON
           FILENAME 
           &EACH
             MD  10
           &END EACH
         &END TEMPERATURE
       &END PRINT
     &END THERMOSTAT
     &AVERAGES  T
       &RESTART_AVERAGES
         ITIMES_START  1
         AVECPU     3.0602094941279429E-02
         AVEHUGONIOT     0.0000000000000000E+00
         AVETEMP_BARO     8.8113116822314669E+02
         AVEPOT    -4.3382552470158684E+00
         AVEKIN     6.7635325066518892E-01
         AVETEMP     2.6416228767694446E+02
         AVEKIN_QM     0.0000000000000000E+00
         AVETEMP_QM     0.0000000000000000E+00
         AVEVOL     3.9648903608772717E+07
         AVECELL_A     3.0723740857969398E+02
         AVECELL_B     3.2278462781214000E+02
         AVECELL_C     1.6343940179324696E+02
         AVEALPHA     7.3739899569553131E+01
         AVEBETA     1.0879883066247186E+02
         AVEGAMMA     1.0507333469283037E+02
         AVE_ECONS    -1.4673569501333739E+00
         AVE_PRESS     3.1783939532128800E+00
         AVE_PXX     2.7269407347724184E+00
       &END RESTART_AVERAGES
     &END AVERAGES
   &END MD
   &PRINT
     &TRAJECTORY  ON
       &EACH
         MD  10
       &END EACH
     &END TRAJECTORY
     &CELL  ON
       FILENAME 
       &EACH
         MD  10
       &END EACH
     &END CELL
     &FORCES  ON
       FILENAME 
       &EACH
         MD  10
       &END EACH
     &END FORCES
   &END PRINT
 &END MOTION
 &FORCE_EVAL
   METHOD  FIST
   STRESS_TENSOR  ANALYTICAL
   &MM
     &FORCEFIELD
       VDW_SCALE14     1.0000000000000000E+00
       EI_SCALE14     1.0000000000000000E+00
       SHIFT_CUTOFF  T
       DO_NONBONDED  T
       IGNORE_MISSING_CRITICAL_PARAMS  T
       &SPLINE
         R0_NB     1.0000000000000001E-01
       &END SPLINE
       &NONBONDED
         &LENNARD-JONES
           ATOMS Cs Cs
           EPSILON     2.2644852172126850E+01
           SIGMA     5.8500000000000005E+00
         &END LENNARD-JONES
         &LENNARD-JONES
           ATOMS Cs Pb
           EPSILON     8.6920055954630953E+01
           SIGMA     5.1000000000000005E+00
         &END LENNARD-JONES
         &LENNARD-JONES
           ATOMS Br Pb
           EPSILON     2.0528187276773045E+02
           SIGMA     2.9000000000000004E+00
         &END LENNARD-JONES
         &LENNARD-JONES
           ATOMS Br Cs
           EPSILON     5.3481070753900497E+01
           SIGMA     3.8500000000000005E+00
         &END LENNARD-JONES
         &LENNARD-JONES
           ATOMS Br Br
           EPSILON     1.2630795322675199E+02
           SIGMA     4.2599999999999998E+00
         &END LENNARD-JONES
         &LENNARD-JONES
           ATOMS Pb Pb
           EPSILON     3.3363415533600221E+02
           SIGMA     5.9800000000000004E+00
         &END LENNARD-JONES
       &END NONBONDED
       &CHARGE
         ATOM Cs
         CHARGE     2.0000000000000001E-01
       &END CHARGE
       &CHARGE
         ATOM Pb
         CHARGE     4.0000000000000002E-01
       &END CHARGE
       &CHARGE
         ATOM Br
         CHARGE    -2.0000000000000001E-01
       &END CHARGE
     &END FORCEFIELD
     &POISSON
       PERIODIC  XYZ
       &EWALD
         EWALD_TYPE  SPME
         GMAX  22
         O_SPLINE  4
       &END EWALD
     &END POISSON
     &PRINT
       &FF_INFO  LOW
         SPLINE_INFO  F
         SPLINE_DATA  F
       &END FF_INFO
     &END PRINT
   &END MM
   &SUBSYS
     &CELL
       A     5.1003566698929734E+02   -1.4122290220693469E+02   -1.0286776305456171E+02
       B    -2.0253904072986199E+02    4.1433393288975492E+02    1.0809299804830445E+02
       C    -1.2754123804997730E+02    8.2609242794607781E+01    1.6553506828418062E+02
       PERIODIC  XYZ
       MULTIPLE_UNIT_CELL  1 1 1
     &END CELL
     &COORD
Br   -2.5625816169817568E+02    2.1318835134915042E+02    1.0953544511467575E+02
Br   -3.0222563336102428E+02    2.4295922117326350E+02    1.5693201288049528E+02
Br    5.1943255670954734E+01   -1.4501699183199364E+02   -5.4660713825682400E+01
Br   -8.0407665292974727E+01   -3.1583607988510298E+01    2.3324259111776918E+01
Br    9.0352894789419366E+01   -1.0433423269320807E+02   -1.4460085302561167E+01
Br    4.5140757828164475E+01   -1.6343666769264338E+01   -5.5900656982300198E+01
Br   -6.2076374176393900E-01    3.7283880034457675E+00   -1.7751602213868782E+01
Br   -1.5760331538157306E+01    1.2476444718474379E+01    4.0475931434148755E+01
Br   -7.9855221995915173E+01    1.3153714059631565E+02    4.1827584083422870E+01
Br   -8.5778152376347833E+01    1.6010157306021077E+02    7.1857648508532563E+01
Br   -1.1028200601676957E+02    1.6389342749644547E+02    9.0610316435761746E+01
Br    2.1375013329855773E+02   -1.7248177139795442E+02   -1.1820384667372034E+02
Br    1.6286439434454817E+02   -7.0787469436603189E+01   -2.7315043587404997E+01
Br    2.2080775308794509E+02   -1.2795061301460659E+02   -2.8347502710537952E+01
Br    1.7266988586330646E+02   -7.5755269254019709E+01   -4.4266470677608446E+01
Br    1.5047376306915524E+02   -3.3044706044138408E+01   -2.7428571934326779E+01
Br    7.2720298048096325E+01    1.6063120716581235E+01   -1.1764146232470031E+01
Br    9.0432214503362545E+01    1.5630262912356486E+02   -1.7344062456581695E+00
Br    1.7937075533586855E+02    1.3489532231014877E+02   -1.4566318325995784E+01
Br    2.3859064236883569E+01    1.0769739376424596E+02    3.6319983933085290E+01
Pb   -1.9216717737515248E+02   -6.6907224602591114E+01   -4.5438725715375305E+01
Pb   -1.0900717903613806E+02   -1.0370264117647666E+02    1.3046362534217099E+01
Pb   -2.3967152977900435E+02   -2.0853433524441645E+01    6.5071260110045444E+01
Pb   -6.9040536278317589E+01   -1.2566084719104751E+02   -1.0787490511407053E+02
Pb   -2.6566637776257363E+02    7.7599360107474737E+01    3.1796208937631668E+01
Pb   -1.8234977627481922E+02    2.7668771747859505E+01    4.0292599651110969E+01
Pb   -3.4265315072335238E+02    1.3499628090607149E+02    8.2084688490541033E+00
Pb   -2.7967714855310118E+02    2.0502645928785634E+02    5.1009398650751187E+01
Pb   -2.6376914141059058E+02    1.8976893971421177E+02    9.4573303738764565E+01
Pb    4.8133416717469323E+01   -1.5480466861532969E+02   -8.2848142142824557E+01
Pb   -6.6390915306075140E+00   -1.1818708806240031E+02   -2.4943186560937143E+01
Pb   -8.4064657930645410E+01   -9.5244887774400723E+01    7.5206580542276233E+00
Pb    4.9846277815434568E+01   -4.6050415574321427E+01   -1.1428335507119111E+02
Pb   -5.2893450628379156E+01    2.7225987383280899E+01   -9.0467316731947474E+00
Pb   -1.7568835445625987E+02    5.2429262650195575E+01    3.8127786971837523E+01
Pb   -1.0631330695118868E+02    1.1297715499305751E+02   -4.4613670732236272E+00
Pb   -1.3653799745197108E+02    2.4455233801980364E+02    5.2446318786462840E+01
Pb   -2.4185526742962477E+02    2.3411872617679649E+02    1.2311501980907626E+02
Pb    2.2606057345165598E+02   -2.5343079552790999E+02   -1.6802299085863055E+02
Pb    1.8735206300089339E+02   -1.8597356414245826E+02   -9.4499057512140851E+01
Pb    2.0326778484089505E+02   -1.5398221051322713E+02   -4.3456777425691797E+01
Pb    1.3638583048056978E+02   -5.3328584124683331E+01   -4.3609790861264116E+01
Pb    1.7454038185927195E+02   -6.4505283990919693E+01   -4.7421750040110233E+01
Pb   -1.0772425217996252E+01    1.2447344840640518E+01    8.0071256382721714E+00
Pb    7.6115537149665826E+01    1.1395756277501866E+02   -5.0913229301763820E+01
Pb    1.4491223944068309E+01    1.3130774578652219E+02   -2.0615645948156267E+01
Pb    1.1966450112833783E+01    1.1076568944762998E+02    3.2823978811511601E+01
Pb   -1.5486289859375248E+02   -1.0458590582867332E+02   -4.0745704902080398E+01
Pb   -1.0294009274902972E+02   -1.1011980554221093E+02   -2.4455685979279544E+00
Pb   -1.0945162184985104E+02   -5.6087515350918508E+01    7.0441884362399705E+01
Pb   -1.5884162951106893E+02    1.0986294736847488E+00   -3.5126632103943678E+01
Pb   -1.4715372621806392E+02    3.6974351170963921E+01    2.5820030774085893E+01
Pb   -1.2116904399640381E+02   -2.0832145423795531E+01    5.0995011589155233E+01
Pb   -1.6575084222327092E+02    1.4978702921344532E+02   -7.0690607682504814E+00
Pb   -2.5212727615002248E+02    2.1031178261627932E+02    1.0650127048383914E+02
Pb   -2.9725494289403287E+02    2.2598557318162943E+02    1.0906558526730524E+02
Pb    6.4164434873271517E+01   -1.5020374256522805E+02   -6.2875037378344018E+01
Pb    2.1057292310308534E+02   -1.6551582756432038E+02   -6.5042183972509207E+01
Pb    1.0795437330848233E+02   -1.3502317570093663E+02    5.7415915932027994E-01
Pb    2.5589083912277907E+01   -2.9641883610888380E+00   -7.2422998581647505E+01
Pb    3.2458469426182965E+00    9.4558446361829258E+00   -1.3291081229238035E+01
Pb   -1.6987287902539485E+01    1.5264528753470817E+01    4.0953374155415901E+01
Pb   -8.2633087490177147E+01    1.3481045120771185E+02    3.7430473774561364E+01
Pb    5.2022011848838412E+00    1.4150568446745578E+02    4.1361269127885983E+01
Pb   -1.0748074721789010E+02    1.6103619959437103E+02    9.0717586281036645E+01
Pb    2.0133531303676912E+02   -1.8358096405150104E+02   -1.0358349698498294E+02
Pb    2.5835630732845794E+02   -1.6025394009303380E+02   -4.3242695633592980E+01
Pb    2.0674893782301143E+02   -1.4931961540133042E+02   -3.0368429478152013E+01
Pb    2.1019200140942644E+02   -7.9948832809973467E+01   -7.4422900576833769E+01
Pb    2.1280490350457330E+02   -7.2849272466080990E+01   -5.2289803480474404E+01
Pb    2.5441527128097011E+01    2.9367705749100783E+00    2.8145238432032365E+01
Pb    7.6750531993140442E+01    1.0891293129898844E+02   -4.0343422502532732E+01
Pb    2.1901016042738905E+02    5.5929477767488045E+01   -2.7848180197413864E+01
Pb    2.6896080273930023E+00    1.1738904829838535E+02    3.3740527220687540E+01
Pb   -1.0765432650882039E+02   -1.7505570322123864E+02   -9.6550363823165668E+01
Pb   -1.4354236772368313E+02   -1.1178143461267085E+02   -8.1413390588095746E-01
Pb   -9.2043313690714641E+01   -1.9622020026058757E+02    2.2263685593682602E+01
Pb   -1.5897325521773024E+02   -5.9142070193204944E+01   -7.8788085685545553E+01
Pb   -2.5771157685513577E+02    2.6858329635198082E+01    1.9866245031147180E+01
Pb   -2.1510025680729817E+02   -1.3562274228771731E+01    3.9955615958619497E+01
Pb   -3.6452583392227206E+02    1.1697583998224844E+02    1.2246509555953546E+01
Pb   -2.9912101356188191E+02    1.1390426396184979E+02    7.9875420851259491E+01
Pb   -2.9023228153729610E+02    1.4943605958657477E+02    7.4641271651788074E+01
Pb    5.8081094902546539E+01   -2.2442693128043578E+02   -1.0483785693398343E+02
Pb    5.5438956298161619E+00   -1.5323149135540893E+02   -7.1388003909352975E+01
Pb   -5.6088966113779648E+01   -1.3617335540779470E+02   -3.9348340809555973E+00
Pb   -2.7268489322978198E+01   -9.5324965579318345E+01   -8.6631209273511857E+01
Pb   -5.6766977357155753E+01   -4.7703569077583559E+01   -2.2725989562148818E+01
Pb   -7.5007776174060183E+01   -3.5950531645019787E+01    1.2850393580915162E+01
Pb   -4.5824403682941593E+01    5.7794832800766478E+01   -3.4941870851116306E+01
Pb   -4.9740118018549474E+01    3.2044546336103544E+01   -1.2282481143649246E+01
Pb   -1.4487908506300681E+02    1.5849558594908564E+02    1.0965935307851191E+02
Pb    2.5503020648744550E+02   -2.9228943639970885E+02   -1.6772737876797038E+02
Pb    6.1313201120787660E+01   -1.9696394966864045E+02   -6.3848604647377215E+01
Pb    2.0037318430890062E+02   -1.7567505996777322E+02   -4.5152732384635385E+01
Pb    1.3643954582657346E+02   -8.0601174513342713E+01   -1.3761660085691094E+02
Pb    7.4383189433038979E+01   -5.1208034262732212E+01   -3.4715445492439862E+01
Pb    1.4975606336505581E+02   -8.9184147081404021E+01   -2.8126740647503855E+01
Pb    1.6192624081013574E+02   -1.0639755490160615E+01   -8.2530342768333981E+01
Pb    1.0379233490216033E+02    1.0186306143147171E+01   -1.2309680149368184E+01
Pb    6.8768723728951628E+01    8.2071178350533494E+00   -1.0376178620347950E+01
Pb   -1.2246069543663086E+02   -1.0231706621095766E+02   -6.5671458558540451E+01
Pb   -1.1247115228940174E+01   -1.6712832796473066E+02   -4.0756584869033162E+01
Pb   -1.0554266802357211E+02   -1.6903597436774243E+02    5.7023393197860742E+01
Pb   -6.5067063112285979E+01   -8.3198550822358641E+01   -8.0885662938225721E+01
Pb   -1.2930490173291017E+02   -5.1739531514637811E+01   -1.0942804242917301E+01
Pb   -1.8031565187429905E+02   -2.2865931504040589E+01    7.6008028488444353E+01
Pb   -5.0862112823141445E+01    7.2338833354059389E+01   -1.4363532459058399E+01
Pb   -1.8591965642369837E+02    9.2133242005273502E+01    5.5101249195801657E+01
Pb   -2.0858158201558035E+02    1.4009748064891269E+02    1.3308360583375674E+02
Pb    3.4816521635499953E+01   -1.5972661515765273E+02   -8.5974567052902984E+01
Pb    5.3298616588259229E+01   -2.0605318691153849E+02   -6.0836226184513521E+01
Pb    9.7846238304101291E+01   -2.2172541024703909E+02    9.4871558189224050E+00
Pb    1.6003497768326266E+01   -1.2542962495054957E+02   -9.5699245189339806E+01
Pb   -4.0069606493925050E+01   -2.4687190122020525E+01    1.7873278090758895E+01
Pb    6.2544090171930208E+01   -8.4160798828685998E+01    5.9462029607519788E+00
Pb    5.2757385721132636E+01    5.9127864179368352E+01   -4.8485435082200127E+01
Pb    3.1612805663718266E+01   -4.5762970086016646E+00    4.6845700879385657E-04
Pb   -9.9889332460268022E+01    1.2264467625077357E+02    8.2227337100009436E+01
Pb    2.9693944527948815E+02   -2.7438711419246357E+02   -1.2354424915793753E+02
Pb    1.9238222035272497E+02   -2.5335558627014345E+02   -4.3238100654758952E+01
Pb    2.1213373161934780E+02   -2.4589881684354003E+02   -3.1635495804906430E+01
Pb    2.7545855481523307E+02   -1.2199960488902104E+02   -1.0065991862410978E+02
Pb    1.6881277833005646E+02   -6.3745563896598227E+01   -3.5397160264306933E+01
Pb    1.0068586594289272E+02   -4.7905859029472204E+01    3.2912588107264860E+01
Pb    1.4749077881842348E+02   -5.7423073087007282E+01   -5.8475220014914960E+01
Pb    1.4660200558522828E+02   -3.2301064855700552E+01   -3.3038746144805067E+01
Pb    1.1554063666539079E+01    1.0702094438086758E+02    7.8636627120029559E+01
Cs   -2.2691976913983403E+01   -2.0585176157425590E+02   -1.0445829620370394E+02
Cs   -5.7281539538953737E+01   -8.5679339016776012E+01   -1.5543541353179682E+01
Cs   -1.5075238100604608E+02   -1.7924969970394727E+01    6.8964866966814967E+01
Cs   -1.7400018849130703E+01    1.6891573730591354E+01   -6.4108960741320189E+01
Cs   -1.6070940312163277E+01   -5.3305817686430331E+01   -5.5934873170993413E+01
Cs   -1.6422399799473342E+02   -1.0761638444122820E+01    4.7851612496416543E+01
Cs   -9.7628245970704057E+01    3.9464181972438780E+01   -3.4314765434381627E+01
Cs   -1.4845842098110126E+02    1.1541733407868868E+02    3.4840353518198857E+00
Cs   -2.4828423082043327E+02    1.7544762052143216E+02    4.4281042849616277E+01
Cs    2.1324426184464042E+02   -2.7678425319820735E+02   -1.4833733055060813E+02
Cs    1.7845569856619776E+00   -1.6064293413967707E+02   -4.8411454366136923E+01
Cs    1.7389155211542459E+02   -1.7330955515665579E+02   -5.6911497432966499E+01
Cs    7.2317314066222352E+01   -3.7780671654717267E+01   -7.7823786848660959E+01
Cs   -1.9036259844267335E+01   -6.5470848497482925E-01   -3.7570634748234544E+00
Cs   -2.4669576362336748E+01    1.8256716966848554E+01    6.0102954038379949E+01
Cs    1.5895352208455655E+01    6.9255054445555658E+01   -7.0350167613294175E+01
Cs   -2.2484346913212296E+01    1.2359971638772092E+02    1.4333899497562708E+01
Cs   -1.1180412054067470E+02    1.1048195626976904E+02    5.1684193350748494E+01
Cs    2.8997596360001882E+02   -2.7122494249258932E+02   -1.8763981945160074E+02
Cs    1.8750135363492103E+02   -2.1799089289575210E+02   -1.1758587617583719E+02
Cs    2.4859387955367248E+02   -3.0259719350522846E+02   -9.8386268708204966E+01
Cs    1.7995074872642942E+02   -6.7005486687114825E+01   -8.5923705781138665E+01
Cs    2.3272679808215833E+02   -9.8981840536467431E+01   -5.9176763804554646E+01
Cs    1.6148678916358190E+02   -7.3356924209855151E+01   -3.9773175695309590E+01
Cs    1.4125875119972878E+02    4.1067610663151235E+01    2.3017136543359191E+00
Cs    1.7350740627113817E+02    4.0354273870001734E+01    5.0387013364671795E+01
Cs    2.5402134921159071E+01    1.0940303901584592E+02    4.5011751711446841E+01
Cs    1.7101091061092966E+01   -7.6054153214761357E+01   -7.8994701691627114E+01
Cs    7.6814740918785262E+01   -6.1359589800264409E+01   -3.0798806762694770E+01
Cs   -6.0599866751061803E+01   -9.9882383432080772E+01    6.2403992310734729E+01
Cs   -1.3521434926370586E+02    1.2459217624450581E+01   -1.1142461527192136E+01
Cs   -1.3022509812875123E+02    1.3690037407955131E+02    7.4536985191617447E+01
Cs   -1.3176138150171087E+02    2.6714194686619365E+01    6.0288383430982016E+01
Cs   -1.3240478645550073E+02    2.0254132994288983E+02    1.6978617184210623E+01
Cs   -1.1639450974943546E+02    1.9390958433682616E+02    1.0034422166047364E+02
Cs   -1.7261929892823665E+02    2.8395320497768444E+02    1.2824068225739867E+02
Cs    2.4807453844056772E+02   -1.1928060503116541E+02   -9.7204250239121848E+01
Cs    1.5718932285223218E+02   -6.9711286618045435E+01   -4.2931565842825208E+01
Cs    8.8886005687281994E+01   -1.1539573088637262E+02   -1.6719798409160255E+01
Cs    7.7673492381028225E+01    4.7508730234536223E+01   -4.7648111540284134E+01
Cs    9.1603570264945574E+01   -4.8054556995312467E+01   -2.7584770607467796E+01
Cs   -2.3526441771040492E+01    8.8523469190863153E+01    4.9958190671520356E+01
Cs    3.2021480170349881E-01    1.4782378339786740E+02   -2.6376802992594950E+01
Cs    5.1943241630285598E+01    1.5219080167665356E+02   -3.0462730313743211E+01
Cs   -1.9088356915636080E+01    2.2001654536971108E+02    5.9259619212332268E+01
Cs    2.9878339974797467E+02   -1.1901561310130843E+02   -8.9992535587695301E+01
Cs    3.9280046521884191E+02   -1.9871980439881216E+02   -1.3251630249977771E+02
Cs    1.7077080094090476E+02   -1.0325476962860925E+02    1.7507116437570271E+01
Cs    2.8080363604503088E+02   -1.2997983338510420E+02   -9.7016814712380935E+01
Cs    2.5659199499858647E+02   -7.5362179490155356E+01   -9.5586855132445933E+01
Cs    3.1593884405636805E+02   -7.2750936075095012E+01   -8.9979821031361222E+00
Cs    1.8057999850516615E+02    6.7388236482237161E+01   -4.9658970960105009E+01
Cs    1.9075430308516161E+02    1.1893754946737813E+02   -1.2116624335941941E+01
Cs    1.8155488689833098E+02    1.0264608748662134E+02    3.6759511808058058E+01
Cs   -4.1513565065553458E+01   -9.6295063547003537E+01   -8.5545478582124900E+01
Cs   -1.4654073759785780E+02   -2.5430180797333133E+01   -3.7561645053705641E+00
Cs   -1.9649465175749953E+02    2.9228895765077247E+00    9.5908090882244664E+01
Cs   -7.2659288599705306E+01    5.2553193270847409E+01   -5.2243032054740002E-01
Cs   -2.1758990941812004E+02    5.8477916620367779E+01    1.5234153975861515E+01
Cs   -1.5256303751023202E+02    9.0028992792478526E+00    8.9593944530175818E+01
Cs   -1.9320840955628566E+02    2.4290065581715766E+02    3.6337629962184650E+01
Cs   -2.4431812293109198E+02    2.1758147588139033E+02    9.6115569110391604E+01
Cs   -4.4631563432264659E+02    2.3032377001127438E+02    1.6427612633324804E+02
Cs    9.7894212181618812E+01   -7.9684486313230735E+01   -1.1839032041513551E+02
Cs    5.2103773346162736E+00   -6.7528732371490847E+01    2.7145340187550930E+00
Cs    4.6080987036646960E+01   -3.3735106202805426E+01    2.3138699696191541E+01
Cs    2.2479892733842881E+01   -1.0363803130809901E+01   -4.2527177163678196E+01
Cs   -2.3261066033865494E+00    3.3685394715440587E+01    1.6998858725385457E+01
Cs   -8.9825725698394663E+01    6.7968157245404811E+01    6.8366549377287114E+01
Cs   -7.4740098598894349E+01    1.4620691826684305E+02    3.7540251917305092E+01
Cs   -4.5041734589886076E+01    1.4070633292046361E+02    5.3820124519623313E+01
Cs   -1.7546430402162457E+02    1.7705910541491303E+02    1.5898143281746081E+02
Cs    2.1464879975519841E+02   -1.7560029280374727E+02   -1.0303623089651850E+02
Cs    2.5446202533166809E+02   -1.2970188600125374E+02   -3.5663528385115093E+01
Cs    2.1530685143911643E+02   -1.1001568286868246E+02    1.1113011046334959E+01
Cs    2.4241030598779133E+02   -4.9831762315751725E+01   -4.2901741458761087E+01
Cs    2.9933701701114614E+01    2.2441780072381576E+01    3.5941635047614703E+01
Cs    2.5687793017324633E+01    7.9269160494712935E+01    7.1434401377640413E+01
Cs    1.8567459643010574E+02    1.1813704472921519E+02   -1.8010521976683144E+01
Cs   -4.2129269648180454E+00    1.6181757671784314E+02    4.1403414747294605E+01
Cs    1.8838760013482823E+01    1.7524591560970984E+02    8.5735315439938418E+01
Cs   -1.6065361773711692E+02   -1.1871399847322694E+02   -4.5685792893220267E+01
Cs   -9.1834415795197899E+01   -1.5023557115544673E+02    5.8751481540142507E+01
Cs   -2.8047800489828188E+02    8.5262260992892465E+00    1.0167292104079469E+02
Cs   -2.6124703350114902E+02    7.5149247997493109E+00   -4.1163004121226322E+01
Cs   -2.4521233662494575E+02    4.1269036096586348E+01    5.8441979496251982E+01
Cs   -2.0882400135342434E+02    8.7246677987448145E+00    7.6577822617674897E+01
Cs   -2.3880444459471744E+02    2.0727280053229126E+02    5.4244239321830293E+01
Cs   -1.6949499471178441E+02    2.2715027986736939E+02    5.4593136894710781E+01
Cs   -2.3476488717061022E+02    1.6239595521794797E+02    1.3441974525622069E+02
Cs    1.9039133439851369E+01   -1.3651855323788391E+02   -6.4243809128125577E+01
Cs   -5.3934171956000824E+01   -1.4520481305238269E+02   -3.4031755267450620E+01
Cs    4.4024921542092763E+01   -1.6674736151829390E+02   -2.7012904922420308E+01
Cs    2.1696085543691431E+01   -4.5622317648295223E+01   -2.2836603845236748E+01
Cs   -8.3083536787347256E+01   -3.7455791077754654E+01   -3.6789525728325025E+00
Cs   -6.9113422888835316E+01   -6.1812608415359314E+01   -1.0782376036703865E+00
Cs    2.1563256357502269E+01    5.6389394945708474E+01   -4.1029464236289783E+01
Cs   -3.3529632488652467E+01    7.4148990935609817E+01   -1.5209996560654085E+01
Cs   -1.6722280325834711E+02    2.1994398256746842E+02    9.2809168430670709E+01
Cs    1.2715294564631068E+02   -2.3685647910114534E+02   -1.0275194465424197E+02
Cs    1.7871181380850618E+02   -1.6247204221856660E+02   -7.2460304926055471E+01
Cs    1.6849823358597763E+02   -1.4498030427876583E+02   -2.0890148262729642E+01
Cs    1.2310196744475520E+02   -8.8103611788864015E+01   -1.0706953457159683E+02
Cs    4.2794016149318345E+01   -5.1469870128129749E+01   -2.5046812627474761E+01
Cs    5.9655368043024373E+00    9.4508959843738634E+00    2.0824141579237963E+01
Cs    1.1252115350450687E+02    3.8426972596241860E+01   -6.5448302744263074E+01
Cs    6.2229109600159440E+01    4.3091457944493420E+01   -8.5042963829739158E+00
Cs   -4.0297061987417720E+01    1.7860963989994465E+02    1.0343395209483710E+02
Br   -1.3565692030719424E+02   -1.2638568400805904E+02   -4.8127991233938097E+01
Br   -2.2928726707153723E+02    3.1821221534074082E+00    4.2775914144029713E+01
Br   -2.4167538611375045E+02   -2.0842710852783732E+01    6.7488514857218973E+01
Br   -1.5532059768312689E+02    9.1196224206313359E-01   -3.6504610428977387E+01
Br   -2.2195800014936742E+02    6.0144038984075763E+01    1.8211824049507289E+01
Br   -1.8989555491875950E+02    1.2958671190385592E+01    3.4084969192202685E+01
Br   -1.2996980064900237E+02    1.3274678518471728E+02    1.6084515338036427E+00
Br   -2.6005645685287544E+02    2.3826510867499553E+02    8.5426676407004010E+01
Br   -3.0016278642199796E+02    2.3588311289470636E+02    1.2061184602340407E+02
Br   -2.9064111658750026E+01   -9.8193312739570416E+01   -8.2892616383768697E+01
Br   -2.8206606695410699E+01   -9.2414800835409665E+01   -3.5824247452913774E+01
Br   -7.5413561213671002E+01   -6.3127573544379707E+01   -4.9412882459195551E-01
Br    9.9778668227825577E+01   -8.3255500233109927E+01   -1.1415298277309211E+02
Br   -7.0623226712446447E+00    1.7958555994174684E+01    4.1810730039712976E+00
Br   -2.7686896751961758E+01    1.9330915119707054E+01    4.6683220708070280E+01
Br   -9.7855078555172227E+01    1.0760113423485015E+02   -4.3237586869915416E+00
Br    4.2145605231020369E+00    1.4490566600473775E+02    3.2316824344656318E+01
Br   -1.8888444879790197E+02    2.2922782240412022E+02    9.3628977117229169E+01
Br    2.5096867292285518E+02   -1.1693969665604190E+02   -1.0258106469112610E+02
Br    1.8973927084501932E+02   -1.7341317367262960E+02   -4.4631581449571840E+01
Br    1.8222867371448405E+02   -1.4815315179316224E+02   -3.1740075587265501E+01
Br    2.2454529091667507E+02   -6.0648830172138112E+01   -6.4295238942996974E+01
Br    1.6990792224240147E+02   -4.9198113210052334E+01   -7.1120646612758478E+01
Br    2.2510514671627504E+01    5.5313544881767776E+00    1.9372432014176571E+01
Br    7.7373815428056801E+01    1.0735426586591606E+02   -3.6979347993226355E+01
Br   -1.4760128763479017E+01    1.4100480836531924E+02   -1.0022575808236063E+01
Br   -1.5662765799278512E+02    2.0389713317612757E+02    1.1247972314172931E+02
Br   -1.1558720713952482E+02   -1.6941764689660482E+02   -2.4173261562728374E+01
Br   -7.9892476273482117E+01   -6.1390469856347984E+01   -4.4573015826072986E+00
Br   -2.9606508271149153E+02    1.7770886681966918E+01    7.8961179148318124E+01
Br   -2.7774289878908775E+02    5.8639117500481518E+01    6.1495867247095468E+01
Br   -3.0811919575262084E+02    4.3476361425113232E+01    3.7862245863161647E+01
Br   -2.1098747893948982E+02   -2.6696624583633138E+01    6.5021427596132199E+01
Br   -2.5712674126587621E+02    1.9870156533167031E+02    4.6607040802620311E+01
Br   -2.6129908150983573E+02    1.8740832171843584E+02    1.0565193842478926E+02
Br   -4.7154532387232462E+02    2.1415234991715221E+02    1.8023841078105474E+02
Br    1.7217738003018837E+01   -1.3975028022571624E+02   -7.0814176747587538E+01
Br    2.1298143805205376E+02   -1.6394587738902428E+02   -6.6649242585669597E+01
Br   -6.6037889394496005E+01   -9.5256991524302151E+01    6.9721948767336741E+01
Br    2.7677464362918940E+01   -4.2714447331309744E+00   -7.3811630167800814E+01
Br   -1.9763335180523984E+02    4.3253403945002106E+01    5.0650132474965680E+01
Br   -7.4306385603163321E+01    4.0077124145848046E+01    4.5070299758691156E+01
Br   -1.7135418393544654E+02    2.2514029453229134E+02    3.5349738539560853E+01
Br    1.2446584834527995E+01    1.4335195374508106E+02    3.4703067958547024E+01
Br   -1.7735312439321910E+02    1.4504531793807948E+02    1.4093086687856200E+02
Br    1.9206801038190522E+02   -1.7840615927741214E+02   -9.0741808296045079E+01
Br    2.6472352057965759E+02   -1.6286704153322856E+02   -4.6374435457956672E+01
Br    1.2560645995136454E+02   -1.5373048281106728E+02    1.7607905802191324E+00
Br    1.3492701510055687E+02   -3.6838072203685712E+01   -6.2370235567490290E+01
Br    4.9489034083429971E+01   -4.4490263837559489E+01   -3.9086949775554494E+01
Br    1.7921141949345763E+01    4.5122360524145741E+01    1.3479359631235684E+02