 # Version information for this restart file 
 # current date 2020-12-23 15:00:25.649
 # current working dir /Users/bvanbeek/Downloads/MM_MD_workdir/md
 # Program compiled at                             Fri Apr 19 11:24:34 CEST 2019
 # Program compiled on                                             192.168.1.124
 # Program compiled for                           Darwin-IntelMacintosh-gfortran
 # Source code revision number                                         svn:18464
 &GLOBAL
   PRINT_LEVEL  LOW
   PROJECT_NAME cp2k
   RUN_TYPE  MD
 &END GLOBAL
 &MOTION
   &MD
     ENSEMBLE  NPT_F
     STEPS  10000
     TIMESTEP     2.4999999999999996E+00
     STEP_START_VAL  4000
     TIME_START_VAL     1.0000000000000160E+04
     ECONS_START_VAL    -5.5495911227455137E+00
     TEMPERATURE     3.0000000000000000E+02
     &BAROSTAT
       PRESSURE     1.0100000000000000E+00
       TIMECON     4.9999999999999994E+02
       &VELOCITY
             2.8883354639016864E-06   -4.1803296539988145E-07   -1.3214906445792741E-06   -4.1803296539980093E-07 \
             2.6168486173440981E-07   -1.2047298291507037E-06   -1.3214906445792519E-06   -1.2047298291507267E-06    2.2882078980452659E-06
       &END VELOCITY
       &MASS
             2.1920353963970435E+08    2.1920353963970435E+08    2.1920353963970435E+08    2.1920353963970435E+08 \
             2.1920353963970435E+08    2.1920353963970435E+08    2.1920353963970435E+08    2.1920353963970435E+08    2.1920353963970435E+08
       &END MASS
       &THERMOSTAT
         TYPE  CSVR
         &CSVR
           TIMECON     9.6755373060191392E+00
           &THERMOSTAT_ENERGY
                -2.2957915799106166E-02
           &END THERMOSTAT_ENERGY
           &RNG_INIT
Wiener process for Thermostat # 1        1 F T F   1.2476455523105345E+00        4039761897.0        1651898253.0        3376673848.0        3749406215.0        2530362542.0        2884917159.0             12345.0             12345.0             12345.0             12345.0             12345.0             12345.0             12345.0             12345.0             12345.0             12345.0             12345.0             12345.0
           &END RNG_INIT
         &END CSVR
       &END THERMOSTAT
     &END BAROSTAT
     &THERMOSTAT
       TYPE  CSVR
       &CSVR
         TIMECON     4.9999999999999994E+02
         &THERMOSTAT_ENERGY
              -1.9353222362749392E+00
         &END THERMOSTAT_ENERGY
         &RNG_INIT
Wiener process for Thermostat # 1        1 F T F  -6.6889709471868275E-01        1461746545.0        2979080049.0         851571463.0        3317347782.0        2561590969.0        3011704929.0             12345.0             12345.0             12345.0             12345.0             12345.0             12345.0             12345.0             12345.0             12345.0             12345.0             12345.0             12345.0
         &END RNG_INIT
       &END CSVR
       &PRINT
         &TEMPERATURE  ON
           FILENAME 
           &EACH
             MD  10
           &END EACH
         &END TEMPERATURE
       &END PRINT
     &END THERMOSTAT
     &AVERAGES  T
       &RESTART_AVERAGES
         ITIMES_START  1
         AVECPU     4.0529848750214759E-02
         AVEHUGONIOT     0.0000000000000000E+00
         AVETEMP_BARO     2.4604554662477673E+02
         AVEPOT    -4.9604860388522809E+00
         AVEKIN     6.6224709241331003E-01
         AVETEMP     2.5865286633464621E+02
         AVEKIN_QM     0.0000000000000000E+00
         AVETEMP_QM     0.0000000000000000E+00
         AVEVOL     2.9957047030302387E+05
         AVECELL_A     6.0541148466440347E+01
         AVECELL_B     8.3525549035223008E+01
         AVECELL_C     5.8379473630018666E+01
         AVEALPHA     8.9327026713724763E+01
         AVEBETA     9.0474908331271791E+01
         AVEGAMMA     8.9267556284470771E+01
         AVE_ECONS    -1.3641299876075983E+00
         AVE_PRESS     2.9413119506287106E+00
         AVE_PXX     1.4795847107278302E+00
       &END RESTART_AVERAGES
     &END AVERAGES
   &END MD
   &PRINT
     &TRAJECTORY  ON
       &EACH
         MD  10
       &END EACH
     &END TRAJECTORY
     &CELL  ON
       FILENAME 
       &EACH
         MD  10
       &END EACH
     &END CELL
     &FORCES  ON
       FILENAME 
       &EACH
         MD  10
       &END EACH
     &END FORCES
   &END PRINT
 &END MOTION
 &FORCE_EVAL
   METHOD  FIST
   STRESS_TENSOR  ANALYTICAL
   &MM
     &FORCEFIELD
       VDW_SCALE14     1.0000000000000000E+00
       EI_SCALE14     1.0000000000000000E+00
       SHIFT_CUTOFF  T
       DO_NONBONDED  T
       IGNORE_MISSING_CRITICAL_PARAMS  T
       &SPLINE
         R0_NB     1.0000000000000001E-01
       &END SPLINE
       &NONBONDED
         &LENNARD-JONES
           ATOMS Cs Cs
           EPSILON     2.2644852172126850E+01
           SIGMA     5.8500000000000005E+00
         &END LENNARD-JONES
         &LENNARD-JONES
           ATOMS Cs Pb
           EPSILON     8.6920055954630953E+01
           SIGMA     5.1000000000000005E+00
         &END LENNARD-JONES
         &LENNARD-JONES
           ATOMS Br Pb
           EPSILON     2.0528187276773045E+02
           SIGMA     2.9000000000000004E+00
         &END LENNARD-JONES
         &LENNARD-JONES
           ATOMS Br Cs
           EPSILON     5.3481070753900497E+01
           SIGMA     3.8500000000000005E+00
         &END LENNARD-JONES
         &LENNARD-JONES
           ATOMS Br Br
           EPSILON     1.2630795322675199E+02
           SIGMA     4.2599999999999998E+00
         &END LENNARD-JONES
         &LENNARD-JONES
           ATOMS Pb Pb
           EPSILON     3.3363415533600221E+02
           SIGMA     5.9800000000000004E+00
         &END LENNARD-JONES
       &END NONBONDED
       &CHARGE
         ATOM Cs
         CHARGE     2.0000000000000001E-01
       &END CHARGE
       &CHARGE
         ATOM Pb
         CHARGE     4.0000000000000002E-01
       &END CHARGE
       &CHARGE
         ATOM Br
         CHARGE    -2.0000000000000001E-01
       &END CHARGE
     &END FORCEFIELD
     &POISSON
       PERIODIC  XYZ
       &EWALD
         EWALD_TYPE  SPME
         GMAX  22
         O_SPLINE  4
       &END EWALD
     &END POISSON
     &PRINT
       &FF_INFO  LOW
         SPLINE_INFO  F
         SPLINE_DATA  F
       &END FF_INFO
     &END PRINT
   &END MM
   &SUBSYS
     &CELL
       A     4.0941096879133084E+01   -5.5796421310504052E-01   -3.4863297705584735E+00
       B    -1.0195178123327313E+00    5.2821211307853055E+01    1.5034177162073945E+00
       C    -3.2058233800831113E+00    1.0785157178625677E+00    3.4392690040997017E+01
       PERIODIC  XYZ
       MULTIPLE_UNIT_CELL  1 1 1
     &END CELL
     &COORD
Br   -1.5720730264591491E+01    2.1817962543433193E+01    1.9445447507705085E+00
Br   -1.5819964305656846E+01    2.0234679062892148E+01    1.4929647092171106E+01
Br    1.8232516008648067E-01   -1.3552568724480514E+01   -1.1545333207767639E+01
Br   -5.3276364659022635E+00   -1.1708363842611439E+01   -5.9901236900063166E+00
Br    3.0224297915433649E+00   -1.2916443580017951E+01    8.2843080637115509E+00
Br    1.8296965594464225E+00   -2.5970597691653285E-01   -1.6743706536952047E+01
Br   -3.9943781137215040E+00    6.9862396542263845E+00   -2.4568808655567067E+00
Br   -5.8758158469959278E-02    2.4601859099175076E+00    1.1004664703859470E+01
Br   -1.8795591469804105E+00    2.0530969356102847E+01   -7.9725112337663324E+00
Br   -1.3480297497358646E+00    1.9208262170574340E+01    6.8482160783837118E+00
Br   -1.0823250297506857E+00    1.9120837574645936E+01    1.1528928911041087E+01
Br    1.3226129914206126E+01   -1.4343439057190976E+01   -1.4953418607285453E+01
Br    1.4240363838081501E+01   -9.0823241366834235E+00   -1.4312689431190455E+00
Br    1.0324865546791294E+01   -1.3740087381655240E+01    1.2202116102953827E+01
Br    1.4048788255188249E+01    2.0798207219763523E+00   -1.2549579209234439E+01
Br    1.3645602032004613E+01    3.3794468184047490E+00    8.1591459792372700E-01
Br    7.1243712581790053E+00    1.1440278299406177E+01    3.7374520696732518E+00
Br    1.3522391807921345E+01    2.3622670974650379E+01   -8.7023284613216738E+00
Br    1.9648453259569244E+01    2.3854412998005287E+01   -4.7784948890857857E+00
Br    1.3355014732618237E+01    1.6667360506977584E+01    5.3874180732522818E+00
Pb   -2.2206840549355352E+01   -1.7402163634336578E+01   -1.6108627836347736E+01
Pb   -1.9116608513144818E+01   -1.5619742085938064E+01    3.7541674833282729E-01
Pb   -2.1167166573034148E+01   -1.5561527371595531E+01    9.1929778399780080E+00
Pb   -1.2612602940768570E+01   -5.2102113920212281E+00   -1.8342503629490405E+01
Pb   -2.1057397349534313E+01    2.2846301711283949E+00   -5.5899108758211504E+00
Pb   -1.9518746860390277E+01   -3.7514645305912331E+00    5.7368291688945563E+00
Pb   -2.4381728736716280E+01    1.2438152776308170E+01   -1.2763171444211176E+01
Pb   -1.9461244193349710E+01    2.2246549179925619E+01   -2.2477127091116680E+00
Pb   -1.6863422745112462E+01    1.7094514093523923E+01    6.5945362555763163E+00
Pb   -5.1244532264077254E+00   -1.8480453552320661E+01   -1.5736545531368140E+01
Pb   -4.6591472091807979E+00   -1.5327296628828917E+01   -6.1456583420094466E+00
Pb   -9.4193314575036986E+00   -1.6414700261265104E+01    6.3119188365563339E+00
Pb   -2.1992164515722270E+00   -9.7179217488838943E-01   -1.8301470909738669E+01
Pb   -7.3148519162818912E+00    1.4957477583453234E+00   -7.6530369950861088E+00
Pb   -1.2407245239875591E+01    1.8330517531972350E+00    4.6573035758859129E+00
Pb   -6.5615881064109960E+00    1.5005531236013521E+01   -1.2976808069406671E+01
Pb   -6.3053567036685267E+00    2.0589021173736423E+01   -1.3842344562069484E+00
Pb   -9.4923652330234187E+00    1.8767534872088898E+01    1.1337959670478332E+01
Pb    8.8922947625086390E+00   -2.0874003393145252E+01   -1.9382900305340407E+01
Pb    7.0730712252569372E+00   -1.6348292387228671E+01   -9.5908076782575744E+00
Pb    1.1566717115701881E+01   -1.8685330170766793E+01    4.2629045691715302E+00
Pb    7.3095944476401904E+00   -1.6624656229829193E+00   -1.1687530340054389E+01
Pb    1.0180483438666085E+01    5.6930283065510866E-02   -4.4631995021407560E+00
Pb    3.5023124735573568E+00    7.1719883811944718E-01    3.8361073076607415E+00
Pb    8.4945314468133137E+00    2.0198734658882948E+01   -1.8349784914690975E+01
Pb    6.7799288824641737E+00    1.8667229909803652E+01   -1.0431703743036287E+01
Pb    6.1800717899526632E+00    1.4497096540285328E+01    1.8598562315162674E+00
Pb   -1.8136714540823121E+01   -1.8531986077177521E+01   -1.1036331309152283E+01
Pb   -1.3347269261851745E+01   -1.8625046853956366E+01    1.7132535013040477E+00
Pb   -1.1382301096614313E+01   -1.5475443215564059E+01    1.2571273275867719E+01
Pb   -1.3820954584429289E+01   -3.9625187709258904E+00   -1.1748075158288396E+01
Pb   -1.2220991166946204E+01   -2.0966440566816510E-01   -2.4877302728077333E+00
Pb   -9.9628896010858732E+00   -4.4566944008014726E+00    1.2729098981757293E+01
Pb   -1.1110083158672571E+01    2.0510715457312422E+01   -1.1501208443424176E+01
Pb   -1.3512130653945297E+01    2.0110752437898093E+01    7.0146395995502298E-01
Pb   -1.7668116394781261E+01    1.7924943860199868E+01    1.3293431324025674E+01
Pb   -1.0276061139017554E+00   -1.7514198036415511E+01   -1.1289210492787033E+01
Pb    5.3313067715313069E+00   -1.7155774119859927E+01    2.4392823417096743E+00
Pb    2.5212669558809777E+00   -1.5872374422095080E+01    8.4555836924752548E+00
Pb    6.4370880697988586E-01    1.4338707602668614E+00   -1.3354942842484029E+01
Pb   -1.4912898946146114E+00    5.4253756564670761E+00   -1.2458975321056693E+00
Pb   -1.8845398397896553E+00    3.0734546573184329E-01    1.0861868070433466E+01
Pb    1.6392277792709115E-01    1.8643981690671797E+01   -7.6505619016353705E+00
Pb    3.3405339578594160E+00    1.8180922749678896E+01   -2.2172668063390844E+00
Pb   -1.3114493967484415E+00    1.7250728179622051E+01    9.0069889276989805E+00
Pb    1.3353683004355034E+01   -1.7204611935146975E+01   -1.2798820928889986E+01
Pb    1.5930935639619458E+01   -1.8416620626867996E+01   -3.3208962607922521E-01
Pb    1.2300447592710494E+01   -1.5015178291279646E+01    9.6642371214967628E+00
Pb    1.4808413337814692E+01   -7.6358913405808215E-01   -1.0972018295898287E+01
Pb    1.6450491188533857E+01   -1.4351730943563163E+00   -2.7537808301733122E+00
Pb    5.8443049153076707E+00    3.7428897663749301E+00    9.0014700349173182E+00
Pb    1.4373415209123165E+01    1.9779302021922121E+01   -9.9165678326103279E+00
Pb    1.8881714264792421E+01    1.5287821928727100E+01   -3.9647301861282798E+00
Pb    9.5076995112435387E+00    1.8896311439911550E+01    8.3379621060493232E+00
Pb   -2.0423146642816249E+01   -3.0056055855126203E+01   -1.5117189959095526E+01
Pb   -1.9963096918707315E+01   -2.5083946626558507E+01   -1.1637024941189928E+00
Pb   -1.8386787364577547E+01   -2.9625242083027050E+01    8.5930527325773536E+00
Pb   -1.7880232193055900E+01   -1.1707736095962316E+01   -1.8319979310912700E+01
Pb   -1.9388239524881815E+01   -5.3929664611963446E+00   -6.0701469169022575E+00
Pb   -1.7150372872680158E+01   -1.0036598139003868E+01    5.0918493570853620E+00
Pb   -2.3997083419977663E+01    6.1955200540704123E+00   -1.3052673952270952E+01
Pb   -2.0387687371230040E+01    7.7457263186758247E+00   -3.2143140364339307E-01
Pb   -2.0580228927425207E+01    1.0500614995762524E+01    7.2668478579702507E+00
Pb   -6.1979521712274446E+00   -2.8301527435383974E+01   -1.6237503641365457E+01
Pb   -7.6048320837936076E+00   -2.3253102238310206E+01   -5.6260929256449037E+00
Pb   -6.6545518440356455E+00   -2.3221698054293668E+01    5.9030698650417577E+00
Pb   -8.2424061568665383E+00   -1.1672504989563118E+01   -1.6189564477731935E+01
Pb   -8.3733826916191845E+00   -1.1357937474608606E+01   -2.5843166621394347E+00
Pb   -7.5357011465798935E+00   -8.7546187431056293E+00    3.2426759062476069E+00
Pb   -3.8771113086506017E+00    8.4617707893637206E+00   -1.5167784158198989E+01
Pb   -2.8323860847726827E+00    6.1976674667204641E+00   -8.3759972744765054E+00
Pb   -8.6607304987438205E+00    9.0423171022704327E+00    9.8292371703770183E+00
Pb    6.6594339051590596E+00   -2.7455643013743135E+01   -1.6826728691090562E+01
Pb    2.2430239136316237E+00   -2.3921090554199527E+01   -6.5193805288188704E+00
Pb    7.3205835524011018E+00   -2.3039240536699310E+01    2.2147636225069536E+00
Pb    8.7274111809469943E+00   -7.9502715193934854E+00   -2.0025252460598363E+01
Pb    4.5700251656537292E+00   -3.8868135478330337E+00   -6.6001598455792090E+00
Pb    8.9473329016941570E+00   -8.2741588992844086E+00    4.4373715124367950E+00
Pb    1.1381876845838155E+01    9.0311309002745421E+00   -1.4523367196578866E+01
Pb    9.8436567561968324E+00    6.1496838096133120E+00   -3.3746317820400145E+00
Pb    8.5232160421842700E+00    7.9698474763482219E+00    4.5643394770634256E+00
Pb   -1.3520240592216194E+01   -2.3832252707661958E+01   -9.4622218095699715E+00
Pb   -9.6708999066971639E+00   -2.5822188321993938E+01    2.6537064405034388E-01
Pb   -1.4997524883266882E+01   -2.9736053699672276E+01    1.4638232719951175E+01
Pb   -1.4929873457968903E+01   -9.4743337906523823E+00   -1.3507755829525964E+01
Pb   -1.3040217691312424E+01   -7.2653109891097136E+00    6.8045794538388982E-01
Pb   -1.6121822802490449E+01   -1.0405979730313270E+01    1.2182555648346682E+01
Pb   -1.0564374161642775E+01    6.0528097024487462E+00   -1.1143918838090070E+01
Pb   -1.3936768576131701E+01    7.3327917781028571E+00    7.3353511412754957E-01
Pb   -1.1742690027675405E+01    7.6255362719269977E+00    1.5227774102353838E+01
Pb   -2.2277715555475939E+00   -2.3432963671534775E+01   -1.1173813109883957E+01
Pb   -2.2830739378628544E+00   -2.4169343615336743E+01   -2.3975956997346284E+00
Pb    9.6784810093971874E-01   -2.9059729372340058E+01    1.0925913285169710E+01
Pb   -1.4929341290886411E+00   -1.1063545350620220E+01   -1.5614131099899213E+01
Pb   -1.6818215086130399E+00   -4.6163685212341425E+00   -5.2484334307398717E-01
Pb    2.5636411034032145E+00   -8.5327139762293225E+00    8.0092157145709990E+00
Pb    1.1668488064292899E+00    1.3352212741591890E+01   -1.1788900662070599E+01
Pb    4.3087294409100672E+00    7.7237212233683481E+00    3.5059381227982617E-01
Pb   -2.4788424367631312E+00    1.1332026662576697E+01    1.3517847743262255E+01
Pb    1.4055358494192511E+01   -2.5500016429178324E+01   -1.2585070144900159E+01
Pb    1.1912022827268107E+01   -2.8017590249521060E+01   -3.3532206649133964E-02
Pb    1.0084907182529591E+01   -2.8414030783312011E+01    9.9760756643745410E+00
Pb    1.5800016344487199E+01   -6.8980898924854799E+00   -1.1818553015014274E+01
Pb    1.3935822075666279E+01   -6.9414270088682271E+00    3.8290784924988830E-01
Pb    1.0243298996492648E+01   -4.1473139467677891E+00    1.0840750719761843E+01
Pb    1.4277148967133529E+01    5.7852618903311361E+00   -1.0121120670128674E+01
Pb    1.5165857620353828E+01    5.8432183945912159E+00    1.1453688812427200E-01
Pb    1.0106022571915540E+01    1.1240608923866073E+01    1.2701090773574155E+01
Cs   -1.3033256852116155E+01   -2.7219251324637618E+01   -1.3822183386462564E+01
Cs   -1.1992176484373694E+01   -1.7888651750971462E+01   -5.2126060518642436E+00
Cs   -1.2656883240810659E+01   -2.0098334608788086E+01    1.6549506398859556E+01
Cs   -5.8018955966679870E+00   -3.3595740084689498E+00   -1.4795655022044267E+01
Cs   -9.7483323383442446E+00   -6.1286099713867639E+00   -6.7410432668101663E+00
Cs   -1.3049105708810959E+01   -5.6959511820873994E+00    7.3763700320825798E+00
Cs   -1.1860926425790408E+01    1.0440747164080133E+01   -1.3859298955170253E+01
Cs   -9.2899279008802651E+00    1.6001802795014825E+01   -6.9929174902308091E+00
Cs   -1.2672576544392452E+01    1.1272998320751739E+01    6.7377039099705645E+00
Cs    2.8797035240105493E+00   -2.4886484750740696E+01   -2.0702508537074955E+01
Cs   -9.5189065320476851E-01   -1.9452973897185327E+01   -5.1824979391063399E+00
Cs    7.2115908609402590E-01   -2.0879447667460234E+01    1.2546181065008239E+00
Cs    2.6792463270714642E+00   -3.5892006196475896E+00   -1.7983122937739846E+01
Cs   -7.5044858520204738E-01   -1.5081785829635942E-02   -7.2059883471285113E+00
Cs   -2.7335030424522850E+00   -8.7600775347679327E-01    3.1975533758235848E+00
Cs   -9.5231788807061291E-01    1.4533132781128545E+01   -1.6719737778872275E+01
Cs    3.1253097645707544E+00    1.2732407356326307E+01   -6.0335447997390235E+00
Cs   -7.1709782841067549E-01    1.2344381793588905E+01    4.7396801515546123E+00
Cs    1.6160718393803027E+01   -2.5259111815582397E+01   -1.8762785021745604E+01
Cs    1.0075441567482306E+01   -2.4448593188283198E+01   -6.5843476393588896E+00
Cs    1.5644607919588209E+01   -2.9071099314652635E+01    6.0719582883852992E+00
Cs    1.2378141880035711E+01   -3.8235670963934032E+00   -1.7761519228544355E+01
Cs    1.3341130092434001E+01   -6.7086141377326891E+00   -5.7158771000553346E+00
Cs    1.2575065413316413E+01   -3.4947881098949756E+00    5.1138368811756765E+00
Cs    1.2483709485306042E+01    1.1809611102780183E+01   -1.0425032883313083E+01
Cs    1.6443488233016080E+01    9.9913079021811360E+00   -4.6068336441166116E+00
Cs    1.3175164857041123E+01    1.2477337249107823E+01    6.4799176181189946E+00
Cs   -3.8750011554985067E+00   -1.2924715339315831E+01   -1.0605463480799937E+01
Cs    1.7403861202244542E+00   -1.2624091039716200E+01   -3.9338867929975780E+00
Cs   -3.7587483738925402E+00   -1.5148586808268815E+01    1.1817848637732135E+01
Cs   -8.7320084048453719E+00    1.8399306749880056E+00   -1.3211219076527774E+01
Cs   -7.3790184316322645E+00    9.1007326527884036E+00    4.0151551829289982E+00
Cs   -7.6762216185270793E+00    1.7738167720348106E+00    1.0513204478621640E+01
Cs   -5.5304976536181387E+00    2.3164844405014925E+01   -8.0222294873389313E+00
Cs   -3.0077881171098841E+00    2.2076913695670569E+01    5.3144475224853203E+00
Cs   -9.0779619619813641E+00    2.4534413870447640E+01    1.2056382909182666E+01
Cs    9.3663149187676140E+00   -1.0483792168998095E+01   -1.1587135195184723E+01
Cs    7.4697653248512035E+00   -1.0017512607879045E+01   -2.9889000882816994E+00
Cs    6.9999907991109653E+00   -1.1757556588071944E+01    9.5966923364907188E+00
Cs    6.4650697861237596E+00    1.0275665708503604E+01   -9.5500987179419923E+00
Cs    1.0681035440559196E+01   -5.7340486671515989E-01    9.8978888313575786E-01
Cs    4.0199335899309609E+00    8.4454965039730094E+00    1.2643650809496847E+01
Cs    5.3067341551409815E+00    2.5018006634171048E+01   -9.5129963029510147E+00
Cs    7.2421181742907388E+00    2.3592480239860862E+01   -3.8495955225149654E+00
Cs    3.3377996082587558E+00    2.5399315669277673E+01    8.0823038227779893E+00
Cs    1.9998139625351286E+01   -1.1863488677823312E+01   -9.6360070549346464E+00
Cs    2.5228994424347494E+01   -1.0869937149414959E+01   -8.9383743005484906E+00
Cs    1.5020432415838629E+01   -8.9878698190915678E+00    6.8671084076077964E+00
Cs    2.2750223513043249E+01    1.0051005702732430E-01   -1.3339400023094768E+01
Cs    2.4131881580558954E+01    1.4921000339559853E+00   -1.6325153145064781E+00
Cs    2.1178896847624646E+01    3.1448952781825525E+00    1.1615568144919214E+01
Cs    2.1073779108251660E+01    1.9484788188084931E+01   -1.2490231031891003E+01
Cs    2.4416449146157913E+01    2.4723505048990944E+01   -4.1438778962796335E-01
Cs    1.8838692509399444E+01    2.3141878761627172E+01    1.1252190067723605E+01
Cs   -1.0978686762532107E+01   -1.1914034897878107E+01   -1.1363474559563501E+01
Cs   -1.0582673075048376E+01   -1.2461117489171029E+01    2.8592584137602319E+00
Cs   -1.6417967454272596E+01   -1.6083760429208947E+01    1.9105163858586000E+01
Cs   -1.2969377187728012E+01    2.3121047385605680E+00   -6.3482707393850557E+00
Cs   -1.5407882594786194E+01    3.1841309194989362E+00    9.2601099146564820E+00
Cs   -1.2414551985858665E+01    1.4292714909692068E+00    1.5085399919525409E+01
Cs   -1.1631298963806948E+01    2.1727494491380693E+01   -5.2964214532279241E+00
Cs   -1.0813196583691166E+01    2.4508699249189881E+01    6.4420148419653875E+00
Cs   -2.0923079215237692E+01    1.5005073030722601E+01    1.8536371501272075E+01
Cs    5.8621249303073508E-01   -7.2648985889640390E+00   -1.0152148477659027E+01
Cs   -3.1058899172438603E+00   -1.2398250571674865E+01    4.1481586439855711E+00
Cs    1.0465116847634279E+00   -1.2392086234244093E+01    1.4030065177582834E+01
Cs    3.3478372720897061E+00    6.8325152957872293E+00   -5.1184059168239227E+00
Cs    2.3364293359563919E+00    5.5086499021578410E+00    5.9197164406214418E+00
Cs   -8.9651166388410553E-01    5.3568811012527391E+00    1.5555178545741025E+01
Cs   -6.2203250320922454E-01    2.3204112109842484E+01   -3.2842365031750980E+00
Cs    1.9621503261330333E+00    1.8638563856389432E+01    3.3062633621516646E+00
Cs   -9.2705536938013267E-01    2.1490717161759633E+01    1.8788619600040857E+01
Cs    1.2938956648839774E+01   -1.5359329291296559E+01   -5.7525247977164815E+00
Cs    1.4711867679574233E+01   -1.1948291249819336E+01    1.7324445751218942E+00
Cs    1.5921262785564489E+01   -9.3487076065167187E+00    1.8082325333512301E+01
Cs    1.5245631105376660E+01    3.0464125840204361E+00   -5.8548114380816045E+00
Cs    1.3645046709792899E+01    4.8700259308037213E+00    6.8478826766580285E+00
Cs    1.0150105656112538E+01    4.1428615264206021E+00    1.3272386546955467E+01
Cs    1.4828655741914938E+01    2.2334892311570208E+01   -4.6626991430292719E+00
Cs    1.1948257860838064E+01    1.7946980365501059E+01    1.6467421458133629E+00
Cs    1.0893940881809550E+01    2.3514537498136658E+01    1.8669533080524221E+01
Cs   -1.9605773556683474E+01   -2.3037970087150882E+01   -7.1938789085182187E+00
Cs   -1.6230635842615776E+01   -2.1952464699419323E+01    7.0404032528502567E+00
Cs   -2.3442233669176897E+01   -2.0683838110864706E+01    1.4228955337235380E+01
Cs   -2.1325185298171345E+01   -3.6990547747697788E+00   -1.5062472535078165E+01
Cs   -2.2272519099320672E+01   -9.0129606253642791E+00   -3.2032387133834933E-01
Cs   -1.9983614660685376E+01   -4.3521800270178739E+00    1.1930938082184708E+01
Cs   -1.6022866214374002E+01    1.6881085432627820E+01   -5.1645912891978183E+00
Cs   -1.3316868179964445E+01    1.3876296911900495E+01    1.5221020998206138E+00
Cs   -1.4456963232168029E+01    1.0667469576827269E+01    1.1958694872777709E+01
Cs   -7.6182173898311838E+00   -1.7665231442475886E+01   -1.0946205209551843E+01
Cs   -6.8558880999615113E+00   -1.6261715081761565E+01    5.0993372969605810E-01
Cs   -5.1129482005498135E+00   -2.1685532933273258E+01    9.9233724083573644E+00
Cs   -4.8286173511741879E+00   -3.7254030746089346E+00   -8.8769892261386421E+00
Cs   -6.9910463142937083E+00   -4.1526260409385101E+00   -1.0916568556582211E+00
Cs   -4.9432459440723067E+00   -8.9092167333304051E+00    8.7434727543360324E+00
Cs   -3.4019947621375293E+00    1.3783750869047589E+01   -8.1500532846303866E+00
Cs   -1.7709636058584333E+00    1.0973721354148504E+01   -2.1469241371355521E+00
Cs   -7.3197461257253478E+00    1.4064480268359192E+01    1.4003078769965986E+01
Cs    2.9161719359567115E+00   -2.3298521763934147E+01   -1.3745970352732968E+01
Cs    7.7540199499563265E+00   -1.8797555514435377E+01   -3.3785803614958847E+00
Cs    8.0239861398560013E+00   -2.0168820906529671E+01    9.1612608618427060E+00
Cs    5.6224167841191752E+00   -6.3891690421513454E+00   -1.3323154232031435E+01
Cs    5.8634138117993997E+00   -5.8236842904308261E+00   -1.2904420464626346E-01
Cs    3.6159178347905701E+00   -2.9032619763560832E+00    1.0060908223902823E+01
Cs    5.9932130647982875E+00    1.4498967418963552E+01   -1.5118316163814116E+01
Cs    8.5915699670880947E+00    1.1278818126249442E+01   -2.7692892725287015E+00
Cs    1.7521069990783016E+00    1.6255351935323610E+01    1.3949249425566643E+01
Br   -1.7855224967662455E+01   -1.9526501752388096E+01   -1.4986857275219592E+01
Br   -2.2908530660518110E+01   -1.7797467747983202E+01    6.6900365330537195E+00
Br   -1.9516889459102352E+01   -1.7804500084863005E+01    1.0302657503061081E+01
Br   -1.4402744155926161E+01   -8.9419729463809161E-01   -1.1586682544210964E+01
Br   -1.5220652651162794E+01    1.0838379691454364E-01   -2.5611639568355544E+00
Br   -1.6787879110463045E+01   -4.5793489916719672E+00    6.3937300585603323E+00
Br   -1.1808395677046738E+01    2.0372303546722211E+01   -1.4671155815101844E+01
Br   -1.4324453286955663E+01    1.7290308477151616E+01   -2.1597250733483994E-01
Br   -2.0246086618597275E+01    2.0148483569350997E+01    1.4416566103915983E+01
Br   -7.1282243937825625E+00   -1.6239572764631589E+01   -1.5491884343802944E+01
Br   -2.7986502137558316E+00   -1.5607006046613400E+01   -3.2333717358888676E+00
Br   -6.8540039966265933E+00   -1.6341283187528795E+01    7.4035494097590773E+00
Br    1.8329120744225553E+00   -5.3989767347518294E+00   -1.4404464303157100E+01
Br    1.3351854370295089E+00    3.5482879999698418E+00   -1.5868906886060798E+00
Br   -4.6098697856150945E+00   -1.3745474342634137E-01    1.2924597186800273E+01
Br   -3.4353476284584816E-01    1.5507664422820106E+01   -1.2568001480983467E+01
Br    8.9155082167520616E-01    1.8582724702851198E+01   -2.5959383415245096E-01
Br   -7.7733714100194442E+00    1.7250005117191638E+01    9.4108950077145685E+00
Br    1.0585859698526283E+01   -8.7568796910509441E+00   -1.5647402615130538E+01
Br    9.4961873129745786E+00   -2.0850827635468889E+01   -8.5634319156126437E-01
Br    1.1429776947007859E+01   -1.6979562225531378E+01    6.6988963547865863E+00
Br    1.0168873408057284E+01   -2.0021948342075966E+00   -1.0724871969527733E+01
Br    1.2511229969193378E+01   -9.1055027863798121E-01   -2.8928338712805859E+00
Br    8.7254017877407417E+00    4.9696779234873549E+00    7.6220981832360879E+00
Br    1.5340428386965211E+01    2.0496505119834197E+01   -1.2708267722989767E+01
Br    6.9748618151130701E+00    2.0328892401941708E+01   -7.4581538315844460E+00
Br    1.3753131049057770E+00    2.2565180578110375E+01    6.5847471319156261E+00
Br   -1.9700125204906051E+01   -2.1693973983097429E+01   -1.1134833804603101E+01
Br   -1.3359411846345301E+01   -1.9224924071732069E+01    4.6911866459993332E+00
Br   -2.1209556879250094E+01   -9.8033812730915528E+00    1.3295602391934812E+01
Br   -1.8428311839292320E+01    2.2752993374608397E+00   -6.6333378442002680E+00
Br   -2.1082120079527037E+01   -1.5725007663880088E+00    2.2056880596277160E+00
Br   -1.3265305131059462E+01   -6.1198532579363043E+00    1.5971314515319506E+01
Br   -1.8178740830578548E+01    2.0946029649862254E+01   -5.0049488530673072E+00
Br   -1.8313576994699932E+01    1.6652687461012295E+01    9.0416410325799248E+00
Br   -2.9156967337272413E+01    1.2681911955827951E+01    1.9091596747513517E+01
Br   -2.6565790343709033E+00   -1.6403490692327257E+01   -8.6641119336591483E+00
Br    2.5304255222161149E+00   -1.8043100111993017E+01    2.8348460787611880E+00
Br   -4.9552467160091398E+00   -1.9738165289108675E+01    1.4121680513308517E+01
Br   -1.7795973611606450E-01   -6.5185802595327980E-01   -1.1365436321023166E+01
Br   -8.5452861645238691E+00    2.6530874211887920E+00    3.8072056062754425E+00
Br   -5.2615848812912827E+00   -3.0672693354446379E+00    1.6374925290648456E+01
Br   -7.3246117612077004E+00    2.3151474802830780E+01   -3.6204219163385027E+00
Br    5.5573234737652353E+00    1.6886186120260234E+01    5.7053263758268158E-01
Br   -8.1386821408580641E+00    1.5982086086679333E+01    1.8226372657646127E+01
Br    9.5407445760691107E+00   -1.5949459761607725E+01   -1.2175492998297766E+01
Br    1.3296752214475616E+01   -1.7547670562834252E+01    1.3764979229794447E+00
Br    8.1534208108321753E+00   -1.8854383384340665E+01    1.2857558766231341E+01
Br    1.2037670468480604E+01   -1.6042180173679960E-01   -7.0294853801979427E+00
Br    6.6957735158753300E+00   -9.1694140586013129E-01    3.9383610292661984E+00
Br    4.4398872062081427E+00   -2.3319750549263736E+00    1.9881586267304524E+01