 # Version information for this restart file 
 # current date 2020-12-23 15:01:01.989
 # current working dir /Users/bvanbeek/Downloads/MM_MD_workdir/md
 # Program compiled at                             Fri Apr 19 11:24:34 CEST 2019
 # Program compiled on                                             192.168.1.124
 # Program compiled for                           Darwin-IntelMacintosh-gfortran
 # Source code revision number                                         svn:18464
 &GLOBAL
   PRINT_LEVEL  LOW
   PROJECT_NAME cp2k
   RUN_TYPE  MD
 &END GLOBAL
 &MOTION
   &MD
     ENSEMBLE  NPT_F
     STEPS  10000
     TIMESTEP     2.4999999999999996E+00
     STEP_START_VAL  5500
     TIME_START_VAL     1.3750000000000124E+04
     ECONS_START_VAL    -5.5495911227455137E+00
     TEMPERATURE     3.0000000000000000E+02
     &BAROSTAT
       PRESSURE     1.0100000000000000E+00
       TIMECON     4.9999999999999994E+02
       &VELOCITY
             8.6631341911310954E-06   -2.5614349884355211E-06   -1.8198226212037997E-06   -2.5614349884355084E-06 \
             1.0222241075763078E-05   -6.4901436942274459E-07   -1.8198226212037961E-06   -6.4901436942274968E-07    8.1145503303649740E-06
       &END VELOCITY
       &MASS
             2.1920353963970435E+08    2.1920353963970435E+08    2.1920353963970435E+08    2.1920353963970435E+08 \
             2.1920353963970435E+08    2.1920353963970435E+08    2.1920353963970435E+08    2.1920353963970435E+08    2.1920353963970435E+08
       &END MASS
       &THERMOSTAT
         TYPE  CSVR
         &CSVR
           TIMECON     9.6755373060191392E+00
           &THERMOSTAT_ENERGY
                 2.4886575976337783E-02
           &END THERMOSTAT_ENERGY
           &RNG_INIT
Wiener process for Thermostat # 1        1 F T F  -1.6682521642831891E+00        3947996751.0        2115981160.0        1842199747.0        4071872750.0         630625970.0         674513988.0             12345.0             12345.0             12345.0             12345.0             12345.0             12345.0             12345.0             12345.0             12345.0             12345.0             12345.0             12345.0
           &END RNG_INIT
         &END CSVR
       &END THERMOSTAT
     &END BAROSTAT
     &THERMOSTAT
       TYPE  CSVR
       &CSVR
         TIMECON     4.9999999999999994E+02
         &THERMOSTAT_ENERGY
              -2.4465825568959882E+00
         &END THERMOSTAT_ENERGY
         &RNG_INIT
Wiener process for Thermostat # 1        1 F T F   5.4034620267209976E-01        1928453068.0        1207948202.0        1773072135.0        1614488254.0        2059477923.0         150034026.0             12345.0             12345.0             12345.0             12345.0             12345.0             12345.0             12345.0             12345.0             12345.0             12345.0             12345.0             12345.0
         &END RNG_INIT
       &END CSVR
       &PRINT
         &TEMPERATURE  ON
           FILENAME 
           &EACH
             MD  10
           &END EACH
         &END TEMPERATURE
       &END PRINT
     &END THERMOSTAT
     &AVERAGES  T
       &RESTART_AVERAGES
         ITIMES_START  1
         AVECPU     3.6085418182001616E-02
         AVEHUGONIOT     0.0000000000000000E+00
         AVETEMP_BARO     3.5866701380254744E+02
         AVEPOT    -4.7240735201300286E+00
         AVEKIN     6.7304936802160231E-01
         AVETEMP     2.6287189512469985E+02
         AVEKIN_QM     0.0000000000000000E+00
         AVETEMP_QM     0.0000000000000000E+00
         AVEVOL     4.8645299472344393E+05
         AVECELL_A     7.3576462645025629E+01
         AVECELL_B     9.4506613214042062E+01
         AVECELL_C     6.2837726797887555E+01
         AVEALPHA     8.6004217128768076E+01
         AVEBETA     9.4434738412654440E+01
         AVEGAMMA     9.2527486302008811E+01
         AVE_ECONS    -1.3964016102077721E+00
         AVE_PRESS     3.8282078025748367E+00
         AVE_PXX     3.1099182304556927E+00
       &END RESTART_AVERAGES
     &END AVERAGES
   &END MD
   &PRINT
     &TRAJECTORY  ON
       &EACH
         MD  10
       &END EACH
     &END TRAJECTORY
     &CELL  ON
       FILENAME 
       &EACH
         MD  10
       &END EACH
     &END CELL
     &FORCES  ON
       FILENAME 
       &EACH
         MD  10
       &END EACH
     &END FORCES
   &END PRINT
 &END MOTION
 &FORCE_EVAL
   METHOD  FIST
   STRESS_TENSOR  ANALYTICAL
   &MM
     &FORCEFIELD
       VDW_SCALE14     1.0000000000000000E+00
       EI_SCALE14     1.0000000000000000E+00
       SHIFT_CUTOFF  T
       DO_NONBONDED  T
       IGNORE_MISSING_CRITICAL_PARAMS  T
       &SPLINE
         R0_NB     1.0000000000000001E-01
       &END SPLINE
       &NONBONDED
         &LENNARD-JONES
           ATOMS Cs Cs
           EPSILON     2.2644852172126850E+01
           SIGMA     5.8500000000000005E+00
         &END LENNARD-JONES
         &LENNARD-JONES
           ATOMS Cs Pb
           EPSILON     8.6920055954630953E+01
           SIGMA     5.1000000000000005E+00
         &END LENNARD-JONES
         &LENNARD-JONES
           ATOMS Br Pb
           EPSILON     2.0528187276773045E+02
           SIGMA     2.9000000000000004E+00
         &END LENNARD-JONES
         &LENNARD-JONES
           ATOMS Br Cs
           EPSILON     5.3481070753900497E+01
           SIGMA     3.8500000000000005E+00
         &END LENNARD-JONES
         &LENNARD-JONES
           ATOMS Br Br
           EPSILON     1.2630795322675199E+02
           SIGMA     4.2599999999999998E+00
         &END LENNARD-JONES
         &LENNARD-JONES
           ATOMS Pb Pb
           EPSILON     3.3363415533600221E+02
           SIGMA     5.9800000000000004E+00
         &END LENNARD-JONES
       &END NONBONDED
       &CHARGE
         ATOM Cs
         CHARGE     2.0000000000000001E-01
       &END CHARGE
       &CHARGE
         ATOM Pb
         CHARGE     4.0000000000000002E-01
       &END CHARGE
       &CHARGE
         ATOM Br
         CHARGE    -2.0000000000000001E-01
       &END CHARGE
     &END FORCEFIELD
     &POISSON
       PERIODIC  XYZ
       &EWALD
         EWALD_TYPE  SPME
         GMAX  22
         O_SPLINE  4
       &END EWALD
     &END POISSON
     &PRINT
       &FF_INFO  LOW
         SPLINE_INFO  F
         SPLINE_DATA  F
       &END FF_INFO
     &END PRINT
   &END MM
   &SUBSYS
     &CELL
       A     9.1096546511774847E+01   -1.8575139832730020E+01   -1.4847573643774760E+01
       B    -2.2499826197068142E+01    1.0043085281268222E+02    1.5987322652190816E+01
       C    -1.4682065950796423E+01    1.3191074913580890E+01    4.9280084649698168E+01
       PERIODIC  XYZ
       MULTIPLE_UNIT_CELL  1 1 1
     &END CELL
     &COORD
Br   -4.1732256683881133E+01    4.3996546284421157E+01    1.5743742450540813E+01
Br   -4.2836228105768143E+01    5.0501475811866911E+01    3.4451425773166655E+01
Br    6.8219834840668092E+00   -3.5107807917437263E+01   -1.5962430956359501E+01
Br   -1.2794661366100346E+01   -1.4894266423005867E+01   -5.4189230500224035E+00
Br    1.4185403914900792E+01   -2.2310694289292204E+01    6.2727324499737724E+00
Br    5.7863411953941952E+00    1.5217885474330348E+00   -2.1797896266630616E+01
Br   -1.7612716246546030E+00    1.6976209012505322E-01   -4.2459784204290862E+00
Br   -1.1668699463917740E+00    4.3637777516789678E+00    1.4864244809547888E+01
Br   -9.5770187320103428E+00    3.4970044851033578E+01    1.7449315817964937E+00
Br   -8.8409970454072067E+00    3.6809733902981819E+01    1.4890347369132680E+01
Br   -1.4010440204836680E+01    3.7346152739476544E+01    1.7021169480845082E+01
Br    2.9412110651164081E+01   -3.9099097375372651E+01   -2.3475860778733260E+01
Br    2.6622956860075707E+01   -1.6887624196266348E+01   -5.7766022387234512E+00
Br    3.2919034077409087E+01   -2.6709168610956340E+01    3.4975560825328067E+00
Br    2.8849199911336459E+01   -8.1421008776845412E+00   -1.6783976844524396E+01
Br    3.1639934626403893E+01   -1.9331125738010613E+00   -6.1723880803370399E+00
Br    1.5895562342104153E+01    9.5161139929549865E+00    3.8034730886084587E+00
Br    2.4164076043895268E+01    4.1926219049672568E+01   -7.5280968032944937E+00
Br    3.7609430327400588E+01    3.8777451270916529E+01   -5.3701814446139364E+00
Br    1.0596108803022421E+01    2.8342047484496018E+01    1.2130877493908745E+01
Pb   -4.2506002983665411E+01   -2.2664141143126002E+01   -1.9363769550541637E+01
Pb   -2.8038221627965306E+01   -3.0080857993031266E+01    7.0297334930711186E-01
Pb   -4.5343609898038274E+01   -1.4918114154348064E+01    1.8044098096386783E+01
Pb   -1.6997095487984151E+01   -2.4345229325884652E+01   -3.0176410205957541E+01
Pb   -4.8421724969440184E+01    1.0704587707177875E+01   -1.4195009309646662E+00
Pb   -3.3354355973836178E+01   -1.8012408613201800E-01    1.0231586490238127E+01
Pb   -6.1367178895427905E+01    2.6687082352627442E+01   -1.1544014349845094E+01
Pb   -4.5625910163160455E+01    4.4798558403038491E+01    3.7059793212170087E+00
Pb   -4.0219520894478087E+01    3.9825835089853840E+01    1.9293872525678555E+01
Pb    1.0188056402842756E+00   -3.7248851793691571E+01   -2.6820916201140417E+01
Pb   -6.5103559817432295E+00   -2.7933049175748621E+01   -7.0492863545141935E+00
Pb   -1.9128453229164588E+01   -2.9715225576134582E+01    9.7173182199557449E+00
Pb    3.5350491282243319E+00   -6.4364767672934153E+00   -3.0653898448550972E+01
Pb   -1.2796820541353803E+01    4.6361871384413975E+00   -7.2164497660870284E+00
Pb   -3.0600572550196716E+01    7.0715436780064103E+00    8.0611625840536654E+00
Pb   -1.6646429867533904E+01    2.6405560689709027E+01   -9.6443518529200016E+00
Pb   -2.2983531590472744E+01    5.2461512358623970E+01    2.9196725267701762E+00
Pb   -3.5167367605374480E+01    4.9354033934267591E+01    2.6435522298913110E+01
Pb    3.1863153869888947E+01   -5.2893357868631242E+01   -3.7821715787551689E+01
Pb    2.5928782268234357E+01   -3.9496737644262708E+01   -1.9087818856692781E+01
Pb    3.3670942934618047E+01   -3.5311558247405152E+01   -3.1899560609827136E+00
Pb    2.0874969256518952E+01   -8.3532963875436792E+00   -1.3322331497745617E+01
Pb    2.7719008703154099E+01   -8.0284351046233944E+00   -8.7459311442597762E+00
Pb   -5.5806877294802293E-01    2.5728939804776694E+00    4.7254869696432049E+00
Pb    1.7180036270120489E+01    3.3670099074556447E+01   -2.1920197335219655E+01
Pb    7.8579317749180797E+00    3.4324719452730513E+01   -1.1786870056120780E+01
Pb    5.3197122039752287E+00    2.8336529288737367E+01    3.5853080447289858E+00
Pb   -3.5021448303222350E+01   -3.1515080829374504E+01   -1.4627871096748942E+01
Pb   -2.1112106480151848E+01   -3.0708099043300244E+01    2.4823554688498946E+00
Pb   -2.0438938711738828E+01   -1.9168933779960717E+01    1.8723066478535451E+01
Pb   -3.1449036992795264E+01   -3.3209547178469925E+00   -1.4940815383383178E+01
Pb   -2.7349860406343378E+01    4.5072637334887196E+00    1.1170770778634773E+00
Pb   -1.9644066172869419E+01   -9.8381382170285061E+00    1.6310253122699958E+01
Pb   -2.8081600916348098E+01    3.3906079975254222E+01   -1.0038532918502820E+01
Pb   -4.0252733395425651E+01    4.6794833295015586E+01    1.4614210704319351E+01
Pb   -4.4930935073547737E+01    4.4137740015493705E+01    2.6625056815390757E+01
Pb    4.4448691192823864E+00   -3.3563470325720779E+01   -1.5656815418114496E+01
Pb    2.9609493422428599E+01   -3.5033700361232867E+01   -9.1450370929064473E+00
Pb    1.4249224157620930E+01   -3.2513062790158074E+01    7.4498566908571489E+00
Pb    2.7180128076625150E+00    1.2958518148623237E+00   -2.0772519615001798E+01
Pb   -3.8637973744025422E-01    4.5517965935075759E+00   -2.7428920211316918E+00
Pb   -1.2750017230826092E+00    1.5739869856584661E+00    1.4217102581738674E+01
Pb   -1.0411507954893581E+01    3.2051504516070857E+01    1.9222113373575254E+00
Pb    4.5407389028462077E+00    3.6817455895876066E+01    4.9465751625527385E+00
Pb   -1.2436675922465270E+01    3.6801029089463363E+01    1.9293388526245536E+01
Pb    3.1581834953693516E+01   -3.6747906674317250E+01   -2.4209677477169208E+01
Pb    4.3635895863677042E+01   -3.5168673393750474E+01   -4.0154388303556683E+00
Pb    3.4997327675078367E+01   -2.9461749301453871E+01    3.4497035790994564E+00
Pb    3.4794752401935007E+01   -1.1779821959776317E+01   -1.6684863194996737E+01
Pb    3.7364708278757156E+01   -1.1966397207275842E+01   -9.3219264840603717E+00
Pb    7.4059600205536364E+00    3.7619366567784520E+00    9.8511618547649196E+00
Pb    2.0226804891168030E+01    3.0879696501945777E+01   -1.2107993619501265E+01
Pb    4.0775168088529490E+01    2.0423782793477478E+01   -5.5554749607741778E+00
Pb    8.2746228365616261E+00    3.0743285871810404E+01    9.7042669036150677E+00
Pb   -3.0171389563392911E+01   -4.8650883806365400E+01   -2.7261856663072646E+01
Pb   -3.4335429504965440E+01   -3.4245020305466923E+01   -2.6453215331856748E+00
Pb   -2.6860375352828292E+01   -5.1918972229932095E+01    6.2760217547350594E+00
Pb   -3.7074679279863069E+01   -1.9835681474882662E+01   -2.8321130689370261E+01
Pb   -4.3713861475234054E+01    6.5036175929167539E-01   -1.9244454893886056E+00
Pb   -4.1113739910966892E+01   -1.0921422802597297E+01    7.2163852694368860E+00
Pb   -6.2998160129361437E+01    1.8897794890711811E+01   -9.4583345024171166E+00
Pb   -5.0165376863266744E+01    1.8328597065543057E+01    1.2936702753104894E+01
Pb   -4.7895403410564519E+01    2.8145392955003803E+01    1.4360298798936117E+01
Pb    4.1584824589474711E-01   -5.3781673627130623E+01   -2.6398595342205752E+01
Pb   -6.3144820521254532E+00   -3.9777608100159284E+01   -1.6591324214115041E+01
Pb   -1.3918643904849414E+01   -3.7817403827263568E+01    2.5275617444359968E+00
Pb   -1.2142798430961967E+01   -2.4794797955986727E+01   -2.5636684969208055E+01
Pb   -1.5089531337863757E+01   -1.6308211291572047E+01   -3.5825696437887116E+00
Pb   -1.4330899394590972E+01   -1.2740959362467668E+01    1.9838930422791623E+00
Pb   -8.6649535078128022E+00    1.6038091837685794E+01   -1.6950662519336678E+01
Pb   -7.4586756285611120E+00    8.3299653177734854E+00   -9.0140014920447538E+00
Pb   -2.1744376046111292E+01    2.9816336464907756E+01    2.2861704725278514E+01
Pb    3.2117002805263454E+01   -6.4016053185893398E+01   -3.5802485169840466E+01
Pb    7.3978423940587383E+00   -4.7108523155428799E+01   -1.5869147438203392E+01
Pb    2.9805152400108003E+01   -4.2758185022950542E+01   -3.5730746580794492E+00
Pb    2.0941227845485169E+01   -1.5100216298354979E+01   -3.6076508931556297E+01
Pb    1.0483071782726354E+01   -9.8105987102849035E+00   -7.6228400602823072E+00
Pb    2.3945812332032375E+01   -1.8634122372077083E+01   -1.7163866919539585E+00
Pb    2.6649434577856514E+01    5.8224107797719613E+00   -2.0188366397242458E+01
Pb    2.0344909381551236E+01    5.2909416098121396E+00   -4.8446744739242238E+00
Pb    1.5643682490319339E+01    7.0618077907033339E+00    2.3143907624949591E+00
Pb   -2.7038831712072238E+01   -3.2416231045591097E+01   -1.7974186424709966E+01
Pb   -1.1084456775304300E+01   -4.4685974317928455E+01   -8.3430134722029035E+00
Pb   -2.2716692860474584E+01   -4.8339369692146889E+01    1.8731004929476853E+01
Pb   -1.9726190444297544E+01   -2.0878989071055599E+01   -2.2098150408424633E+01
Pb   -2.5978438821886336E+01   -1.5294535868355203E+01   -5.3028270722216595E+00
Pb   -3.7376917367419686E+01   -1.5087411163140992E+01    1.5607246841743686E+01
Pb   -1.1074657495677371E+01    1.6287933040071266E+01   -9.9540842533786815E+00
Pb   -3.1568654026616024E+01    1.8927050526776352E+01    7.6091636347846281E+00
Pb   -3.1356472337705419E+01    2.6495465628425002E+01    3.2198078501836861E+01
Pb    1.4691867286179836E+00   -4.1761773143861532E+01   -2.1784778294058299E+01
Pb    4.2243199876457398E+00   -4.8649885954374163E+01   -8.6726253078050437E+00
Pb    1.1900052779643080E+01   -5.5573887864949320E+01    1.0890430689389932E+01
Pb   -3.2202229485412506E+00   -2.6717383610805051E+01   -2.7588561653518106E+01
Pb   -4.4043815056484261E+00   -7.3786195077256478E+00    3.4776245187062629E+00
Pb    9.9514350215715055E+00   -1.9021021341898813E+01    5.7291046628074165E+00
Pb    8.6596511465172554E+00    1.8310174911543452E+01   -1.7206480729159860E+01
Pb    8.2200540186687405E+00    3.1900717810101646E+00   -9.3344754493376980E-01
Pb   -1.3605953268091662E+01    2.4371441799078799E+01    1.8456354260624153E+01
Pb    4.3525218643934316E+01   -5.8977026169032776E+01   -2.2420812941550761E+01
Pb    2.7604931152677860E+01   -5.8895938465148461E+01   -3.6314512069497682E+00
Pb    3.3917127098353447E+01   -5.5651768501491922E+01    2.8662795444899727E+00
Pb    4.3625953746289476E+01   -2.2418328992866847E+01   -2.0778498857495592E+01
Pb    3.0290555811299239E+01   -1.3294392159376036E+01   -3.7924952950231465E+00
Pb    2.1140323871112223E+01   -9.8110714048158751E+00    1.4121475796463866E+01
Pb    2.7398531908305863E+01   -5.4479082978927496E+00   -1.5071667342636564E+01
Pb    2.6927317308056594E+01   -7.9230018241645872E-01   -3.0824553967110329E+00
Pb    8.5472984779672636E+00    2.6962578692952484E+01    2.0597705968053948E+01
Cs   -1.5965808290186397E+01   -5.3590164097778135E+01   -2.7140961389237731E+01
Cs   -1.5861996831501431E+01   -2.6549069163784043E+01   -6.8317526696495730E+00
Cs   -2.7760204499253224E+01   -1.7670873325635903E+01    2.4020511603487346E+01
Cs   -6.8282554056144695E+00   -7.4394250567540943E-01   -1.9564129566200332E+01
Cs   -9.5453657047056115E+00   -1.3138441417220177E+01   -1.3826517660543951E+01
Cs   -2.8160198207707641E+01   -6.4860645856084069E+00    1.1471834524895828E+01
Cs   -2.3143643273619602E+01    9.6588196643388553E+00   -1.5617512185542296E+01
Cs   -2.3843165327982430E+01    2.5577619422233784E+01   -5.6907352876196002E+00
Cs   -4.0136178939879642E+01    3.4554770772999497E+01    6.1210034216135538E+00
Cs    2.1807772539219581E+01   -6.2347116577562062E+01   -3.5777130118732678E+01
Cs   -3.9688073513953595E+00   -3.7694105403759693E+01   -8.9002299098736017E+00
Cs    2.0885422149837108E+01   -4.0940387449662985E+01   -7.7450007543004675E+00
Cs    9.5456495318355223E+00   -7.6771253339395038E+00   -2.4353922299240509E+01
Cs   -6.3389127365817304E+00    1.8766455501473984E+00   -4.4670347918685112E+00
Cs   -7.1807470344714321E+00    2.2079489935623946E+00    1.2651615449364909E+01
Cs    2.3202849398161018E-01    2.0137886815860352E+01   -2.4830816400378332E+01
Cs   -2.4994928771031033E-01    3.0480722450935165E+01   -4.9741020857168214E+00
Cs   -1.1797271357164256E+01    2.6610393376407330E+01    1.0069601017174827E+01
Cs    4.3760359065329268E+01   -5.8613479851234842E+01   -4.1775693752532497E+01
Cs    2.8296575352421474E+01   -4.8067771052828704E+01   -2.2255804762656730E+01
Cs    4.0827025408375953E+01   -6.8184940851645919E+01   -7.9581599529193747E+00
Cs    2.8137012595649288E+01   -8.6769923934422959E+00   -2.2663777908926416E+01
Cs    3.6332813134603597E+01   -1.8612204548422348E+01   -1.1893099400888431E+01
Cs    3.0593064492703064E+01   -1.0641244547449553E+01    1.5175488692285681E+00
Cs    2.6507783106923746E+01    1.6651032239533155E+01   -1.1957863363397254E+00
Cs    3.1906592671862509E+01    1.4092516486484856E+01    1.0098183532897140E+01
Cs    1.2441473015902631E+01    2.4541227442920363E+01    1.3753368351617492E+01
Cs   -2.4388764504262133E+00   -1.8557485246598816E+01   -2.2360890904643469E+01
Cs    1.0465772573456869E+01   -1.6103551897245339E+01   -5.6345140004295269E+00
Cs   -1.1653444078809391E+01   -2.8498786359669150E+01    1.6583204016562462E+01
Cs   -2.3553157028489878E+01    8.7646558443934139E-02   -1.2472992224936647E+01
Cs   -1.9717223310058110E+01    3.0677461123939562E+01    1.7000889273822871E+01
Cs   -2.0694992417955994E+01    3.0709825453262787E+00    1.4234694614404894E+01
Cs   -1.7689292127403348E+01    5.0009200405263748E+01   -4.5167953054849423E+00
Cs   -1.4340584074119889E+01    4.6769306235442023E+01    2.3093227034837618E+01
Cs   -2.3164594555795230E+01    6.0453239226043735E+01    2.6830146391028983E+01
Cs    3.8195426977670351E+01   -2.2839117612836024E+01   -2.4669583823589733E+01
Cs    2.4906337806080010E+01   -1.4195660883295094E+01   -9.8348263144532275E+00
Cs    1.7989479315578940E+01   -2.6030004352549959E+01    4.2449189398599900E+00
Cs    1.2470826029765686E+01    1.5152126280539399E+01   -1.5514733715440007E+01
Cs    1.5585360829298162E+01   -8.9997412533257499E+00   -2.4924256188644431E+00
Cs    1.2206338214457011E+00    2.2703419963096788E+01    1.5796599888499690E+01
Cs    3.7183748882840755E+00    4.0109910966665247E+01   -1.1035571749428643E+01
Cs    1.2324842421793196E+01    4.0088795771886396E+01   -8.2732480437305753E+00
Cs    1.5768357149087704E+00    5.4330170574220553E+01    1.4326150026715156E+01
Cs    4.9751314679627200E+01   -2.4770846357416563E+01   -1.7387366257472774E+01
Cs    6.6934614302003538E+01   -3.4243889160433667E+01   -2.6768603520111405E+01
Cs    3.1678311387272931E+01   -2.0895535110417725E+01    1.1720779964960331E+01
Cs    4.8475984293634511E+01   -1.9329654793921286E+01   -2.3199074243803860E+01
Cs    4.8340225719560962E+01   -8.5734270623348525E+00   -1.4835206097178760E+01
Cs    5.5096092731946982E+01   -7.6448595782781794E+00    6.5069790952694948E+00
Cs    3.5987852942959009E+01    2.2414901752805207E+01   -1.6116046316570607E+01
Cs    4.0625048831896656E+01    3.7685461759625618E+01   -3.8625890496876392E+00
Cs    3.6771255046239993E+01    3.5520228628122098E+01    1.5184959287999121E+01
Cs   -1.2328336226218928E+01   -2.4443611239200049E+01   -1.9136868814303515E+01
Cs   -2.4957129856223887E+01   -1.2326829653325341E+01    1.7818596097529020E+00
Cs   -3.7201046878797108E+01   -1.1782945773552653E+01    2.3970670081271127E+01
Cs   -1.8798219002558408E+01    1.0966840491131405E+01   -7.2429367796041308E+00
Cs   -3.8342829491259678E+01    8.3689447909850880E+00    6.5889152992896651E+00
Cs   -2.3915335695956578E+01    1.2996562550984680E-01    2.1076158134294474E+01
Cs   -2.9378829692794671E+01    5.4108761326993886E+01    8.5153995950153294E-01
Cs   -3.4532701743102294E+01    4.8555167205007351E+01    1.8612817604763244E+01
Cs   -6.8623319478834034E+01    4.3441813237899900E+01    3.6422831435330394E+01
Cs    9.7598555961917111E+00   -1.7306548418818057E+01   -2.9128014171016741E+01
Cs    1.8479926033810123E-01   -1.7174530572784622E+01    3.1329834146896247E+00
Cs    5.5471658178633003E+00   -1.1275168679789909E+01    1.2162471937025440E+01
Cs    6.9188922313381411E+00    1.4419738028165152E+00   -1.1503272296250188E+01
Cs    9.8544424219397475E-01    1.0634729145133624E+01    6.0974202121131498E+00
Cs   -1.1355328552870676E+01    1.4099013492612594E+01    2.1219159559564837E+01
Cs   -8.1561251436740267E+00    3.8746835176718669E+01    4.2166913657147740E+00
Cs   -1.1008194438207084E+00    3.3943081066843213E+01    1.0344492240426618E+01
Cs   -2.0094958188367642E+01    4.1893879687559725E+01    3.9987556671137284E+01
Cs    3.2193891766402281E+01   -4.2848510762204484E+01   -2.2071590029308680E+01
Cs    4.4716263640986817E+01   -2.6696249284458258E+01    7.8279980951672889E-01
Cs    4.0480845876827807E+01   -2.2536463008354573E+01    1.6291842084178448E+01
Cs    4.1058225519861303E+01   -3.1609128759870688E+00   -9.1979928576331975E+00
Cs    1.4616213283745969E+01    9.9389346015562374E+00    1.3680472823690867E+01
Cs    9.1797565784499682E+00    1.9062152084258493E+01    2.1855019237818873E+01
Cs    3.5425165218315257E+01    3.7970086990334181E+01   -7.9974667411631177E+00
Cs    9.5943615327552845E+00    3.9765205282732254E+01    5.8994309375152110E+00
Cs    1.3713669005467029E+01    4.2143234251233977E+01    2.7949749028037072E+01
Cs   -3.7358122590905090E+01   -3.7137310701571160E+01   -1.3288761216505561E+01
Cs   -2.3780178973867965E+01   -4.1690707191462444E+01    1.8700003602605893E+01
Cs   -5.1252677684964354E+01   -1.1666602464880416E+01    2.7126015394543657E+01
Cs   -5.0197260500133012E+01   -4.9040446517647354E+00   -1.9427880305284457E+01
Cs   -4.5518012137194226E+01    2.6006630010043157E+00    9.6132029613769578E+00
Cs   -4.0356347427842778E+01   -4.5199199933751197E+00    1.7923986536687110E+01
Cs   -3.7965747500298860E+01    4.3026199280536353E+01    2.6311377263817315E+00
Cs   -2.7341069694125377E+01    4.6441238088003118E+01    5.1985252918514577E+00
Cs   -3.8228468542075341E+01    3.1989327343696260E+01    2.8269780568427027E+01
Cs   -2.0598214172927212E+00   -3.2033362970271149E+01   -1.6969090360049293E+01
Cs   -1.2646747116774634E+01   -3.6525106091829109E+01   -6.5374478031144871E+00
Cs    3.3646887773816521E+00   -3.9075350125716184E+01    2.0427427693185898E+00
Cs   -1.7839712616887618E-01   -1.0173616772819226E+01   -9.2790491354437723E+00
Cs   -1.8016448285037239E+01   -1.0972398704908048E+01   -4.8929162624156088E+00
Cs   -1.3678564849352334E+01   -1.9872809116501760E+01    3.8784209400528731E+00
Cs    2.3453208889420125E+00    1.5138910670092621E+01   -1.1631070679124450E+01
Cs   -3.7260126807513712E+00    1.8572064330429310E+01   -3.6198906133710773E+00
Cs   -2.3434860009427496E+01    4.4651049653629073E+01    2.0739561068268376E+01
Cs    1.1279423631972985E+01   -5.6156116746205264E+01   -2.7570871236216263E+01
Cs    2.3368104456816337E+01   -3.5353236080003541E+01   -1.2343382630003397E+01
Cs    2.6785521120306463E+01   -3.4137602308240766E+01    1.9531786461252065E+00
Cs    1.9672486711243462E+01   -1.5172687736564432E+01   -2.4841531974548847E+01
Cs    6.7937094245599097E+00   -9.7688432764296742E+00    1.1320615799071579E-01
Cs    1.9263369018780951E+00   -5.0907765399424854E+00    9.8327508640163028E+00
Cs    1.9608511341183807E+01    1.5310428247255846E+01   -2.1614147034311443E+01
Cs    1.3401333555680715E+01    1.4693047046245528E+01   -2.8440931399532969E+00
Cs   -2.8494295030242128E-01    3.8967279676557531E+01    2.5637683205824189E+01
Br   -3.5568739028262101E+01   -2.8512746856275808E+01   -1.5942234902563474E+01
Br   -4.0643078602291581E+01   -1.4508639289893219E+01    7.9054001147056594E+00
Br   -4.2468977356852562E+01   -1.5737587741179835E+01    1.6136754693869690E+01
Br   -3.4235439665100166E+01   -5.2928545825497775E+00   -1.5079062073410000E+01
Br   -3.9470505884253129E+01    7.8829652100894414E+00   -2.9692954178849185E+00
Br   -3.6429518979263683E+01    8.0079123830210630E-01    1.0968637319564733E+01
Br   -2.3051149828007155E+01    3.3088154813139724E+01   -1.0766641612498361E+01
Br   -3.7683076428575767E+01    4.4750144644238652E+01    1.3720440733456327E+01
Br   -4.1805481825197795E+01    4.2805975084943732E+01    2.5993367352816449E+01
Br   -1.1613348971213810E+01   -2.7552678251601520E+01   -2.3643178706033133E+01
Br   -7.6832983667256709E+00   -3.0835813904456572E+01   -6.5938866826770042E+00
Br   -1.0818581181479155E+01   -1.6076114562810016E+01    3.6436802100584726E+00
Br    1.2677374197120535E+01   -1.6767902756097854E+01   -2.6988227673426906E+01
Br    2.5196336438389477E+00    4.8320130691447307E+00   -4.9688623075974014E+00
Br   -5.0443128943417292E+00    2.3803877852434474E+00    1.6000247558994147E+01
Br   -1.4620152203094628E+01    2.4188994502322789E+01   -1.0216755760290523E+01
Br    3.0218325096215470E+00    3.4074819032056297E+01    5.6293492634054108E+00
Br   -2.9685697977526385E+01    4.6315107728232633E+01    1.8796976573620821E+01
Br    3.3278027759588696E+01   -2.3176866949660084E+01   -2.4842729380589176E+01
Br    3.2322249078054178E+01   -4.1041881085062499E+01   -4.7503508505766003E+00
Br    3.4491732128983067E+01   -3.3826992964696807E+01    2.0560292284931481E+00
Br    3.2522301325030533E+01   -1.3520168128990598E+01   -1.6649851270580246E+01
Br    2.9765455930432431E+01   -1.0156669547141371E+01   -8.2292587919207048E+00
Br    1.0494139907172052E+01    3.8906333710681360E+00    1.2098101254178079E+01
Br    2.3286225510746998E+01    3.0844672411373633E+01   -1.2456768637340927E+01
Br   -7.7021102392859775E-01    3.4944186745021142E+01   -1.1568698616871107E+01
Br   -1.6279043799712049E+01    4.7228470431257485E+01    1.9464196585698804E+01
Br   -2.8112334791213087E+01   -4.6444727854297021E+01   -8.6097873317499918E+00
Br   -1.7188759347607160E+01   -2.1260245469859569E+01    5.4819669020624167E+00
Br   -4.8738424704491123E+01   -4.4412709803057968E+00    2.2017344999699329E+01
Br   -4.6315363617470688E+01    1.3588049559216671E+01   -1.5652780757443987E+00
Br   -5.5107596978701352E+01    4.3014384740654501E+00    6.3923571887663355E+00
Br   -3.0328289178865688E+01   -1.3911540672749512E+01    1.8860546239695683E+01
Br   -4.1658790033042159E+01    4.4287916350015699E+01    3.8557404432301499E+00
Br   -3.7991747811648516E+01    3.8332960240516542E+01    1.7631401375529375E+01
Br   -7.4975765474789796E+01    4.1485121156070427E+01    3.5260391511081131E+01
Br   -2.0494165297907657E-01   -3.0745506760275969E+01   -1.3455014121801124E+01
Br    2.7706354263994761E+01   -3.4007947184003427E+01   -6.8528530125771026E+00
Br   -9.1673048290179224E+00   -2.8789629918253429E+01    2.2435721964724710E+01
Br    9.8434030070873402E-01   -1.6724137235029430E+00   -2.0045409122205832E+01
Br   -2.7328162645409073E+01    1.1095305462510371E+01    8.1961916672367554E+00
Br   -8.7695515888978264E+00    5.6171247425775617E+00    2.0630523872562463E+01
Br   -2.4433415158236418E+01    5.3332161438006146E+01    6.8220036078165833E+00
Br    8.3002691307954528E+00    3.4831409335124633E+01    2.2383297291455722E+00
Br   -2.4711664932156786E+01    2.9145436341754081E+01    3.5066761215252178E+01
Br    2.5693086739149258E+01   -4.2111508008913283E+01   -2.0899682757874078E+01
Br    4.0581613069992095E+01   -3.6521486525032792E+01   -3.0851706892402784E+00
Br    1.3964696273244495E+01   -4.0767354471035745E+01    1.2033873659092629E+01
Br    2.8710176780540387E+01   -6.1222820470790822E+00   -1.0994770886489864E+01
Br    1.1182066319652170E+01   -1.2281361054946814E+01   -2.4235865714773688E+00
Br    9.0961309700997912E+00    4.3859017338043120E+00    3.5040113664432582E+01