 # Version information for this restart file 
 # current date 2020-12-23 15:00:51.028
 # current working dir /Users/bvanbeek/Downloads/MM_MD_workdir/md
 # Program compiled at                             Fri Apr 19 11:24:34 CEST 2019
 # Program compiled on                                             192.168.1.124
 # Program compiled for                           Darwin-IntelMacintosh-gfortran
 # Source code revision number                                         svn:18464
 &GLOBAL
   PRINT_LEVEL  LOW
   PROJECT_NAME cp2k
   RUN_TYPE  MD
 &END GLOBAL
 &MOTION
   &MD
     ENSEMBLE  NPT_F
     STEPS  10000
     TIMESTEP     2.4999999999999996E+00
     STEP_START_VAL  5000
     TIME_START_VAL     1.2500000000000537E+04
     ECONS_START_VAL    -5.5495911227455137E+00
     TEMPERATURE     3.0000000000000000E+02
     &BAROSTAT
       PRESSURE     1.0100000000000000E+00
       TIMECON     4.9999999999999994E+02
       &VELOCITY
             9.8008045423021451E-06    3.0420391995696608E-07   -2.5014260465477082E-06    3.0420391995700595E-07 \
             7.4300922828965886E-06    2.3513389865454947E-06   -2.5014260465476984E-06    2.3513389865454761E-06    2.4460535858319874E-06
       &END VELOCITY
       &MASS
             2.1920353963970435E+08    2.1920353963970435E+08    2.1920353963970435E+08    2.1920353963970435E+08 \
             2.1920353963970435E+08    2.1920353963970435E+08    2.1920353963970435E+08    2.1920353963970435E+08    2.1920353963970435E+08
       &END MASS
       &THERMOSTAT
         TYPE  CSVR
         &CSVR
           TIMECON     9.6755373060191392E+00
           &THERMOSTAT_ENERGY
                -1.7875674924005897E-02
           &END THERMOSTAT_ENERGY
           &RNG_INIT
Wiener process for Thermostat # 1        1 F T F   8.8500643136086826E-02        2936936469.0        1788516250.0        1799575272.0        2043615050.0        3783333933.0        3913896308.0             12345.0             12345.0             12345.0             12345.0             12345.0             12345.0             12345.0             12345.0             12345.0             12345.0             12345.0             12345.0
           &END RNG_INIT
         &END CSVR
       &END THERMOSTAT
     &END BAROSTAT
     &THERMOSTAT
       TYPE  CSVR
       &CSVR
         TIMECON     4.9999999999999994E+02
         &THERMOSTAT_ENERGY
              -2.2199715175441739E+00
         &END THERMOSTAT_ENERGY
         &RNG_INIT
Wiener process for Thermostat # 1        1 F T F   8.1745901023560763E-01        2738759355.0         172546445.0        1125129222.0         403083296.0        1135405741.0        1447731653.0             12345.0             12345.0             12345.0             12345.0             12345.0             12345.0             12345.0             12345.0             12345.0             12345.0             12345.0             12345.0
         &END RNG_INIT
       &END CSVR
       &PRINT
         &TEMPERATURE  ON
           FILENAME 
           &EACH
             MD  10
           &END EACH
         &END TEMPERATURE
       &END PRINT
     &END THERMOSTAT
     &AVERAGES  T
       &RESTART_AVERAGES
         ITIMES_START  1
         AVECPU     3.7499434600025125E-02
         AVEHUGONIOT     0.0000000000000000E+00
         AVETEMP_BARO     2.6341231392040714E+02
         AVEPOT    -4.8023843069462453E+00
         AVEKIN     6.7166102413293927E-01
         AVETEMP     2.6232965170774247E+02
         AVEKIN_QM     0.0000000000000000E+00
         AVETEMP_QM     0.0000000000000000E+00
         AVEVOL     3.7333104520925658E+05
         AVECELL_A     6.6738336473918295E+01
         AVECELL_B     8.8626272293834433E+01
         AVECELL_C     6.0572457589455091E+01
         AVEALPHA     8.7755214839304841E+01
         AVEBETA     9.2881920337992113E+01
         AVEGAMMA     9.1058139934536584E+01
         AVE_ECONS    -1.3573013053279508E+00
         AVE_PRESS     3.4869398831818166E+00
         AVE_PXX     2.8663434532617420E+00
       &END RESTART_AVERAGES
     &END AVERAGES
   &END MD
   &PRINT
     &TRAJECTORY  ON
       &EACH
         MD  10
       &END EACH
     &END TRAJECTORY
     &CELL  ON
       FILENAME 
       &EACH
         MD  10
       &END EACH
     &END CELL
     &FORCES  ON
       FILENAME 
       &EACH
         MD  10
       &END EACH
     &END FORCES
   &END PRINT
 &END MOTION
 &FORCE_EVAL
   METHOD  FIST
   STRESS_TENSOR  ANALYTICAL
   &MM
     &FORCEFIELD
       VDW_SCALE14     1.0000000000000000E+00
       EI_SCALE14     1.0000000000000000E+00
       SHIFT_CUTOFF  T
       DO_NONBONDED  T
       IGNORE_MISSING_CRITICAL_PARAMS  T
       &SPLINE
         R0_NB     1.0000000000000001E-01
       &END SPLINE
       &NONBONDED
         &LENNARD-JONES
           ATOMS Cs Cs
           EPSILON     2.2644852172126850E+01
           SIGMA     5.8500000000000005E+00
         &END LENNARD-JONES
         &LENNARD-JONES
           ATOMS Cs Pb
           EPSILON     8.6920055954630953E+01
           SIGMA     5.1000000000000005E+00
         &END LENNARD-JONES
         &LENNARD-JONES
           ATOMS Br Pb
           EPSILON     2.0528187276773045E+02
           SIGMA     2.9000000000000004E+00
         &END LENNARD-JONES
         &LENNARD-JONES
           ATOMS Br Cs
           EPSILON     5.3481070753900497E+01
           SIGMA     3.8500000000000005E+00
         &END LENNARD-JONES
         &LENNARD-JONES
           ATOMS Br Br
           EPSILON     1.2630795322675199E+02
           SIGMA     4.2599999999999998E+00
         &END LENNARD-JONES
         &LENNARD-JONES
           ATOMS Pb Pb
           EPSILON     3.3363415533600221E+02
           SIGMA     5.9800000000000004E+00
         &END LENNARD-JONES
       &END NONBONDED
       &CHARGE
         ATOM Cs
         CHARGE     2.0000000000000001E-01
       &END CHARGE
       &CHARGE
         ATOM Pb
         CHARGE     4.0000000000000002E-01
       &END CHARGE
       &CHARGE
         ATOM Br
         CHARGE    -2.0000000000000001E-01
       &END CHARGE
     &END FORCEFIELD
     &POISSON
       PERIODIC  XYZ
       &EWALD
         EWALD_TYPE  SPME
         GMAX  22
         O_SPLINE  4
       &END EWALD
     &END POISSON
     &PRINT
       &FF_INFO  LOW
         SPLINE_INFO  F
         SPLINE_DATA  F
       &END FF_INFO
     &END PRINT
   &END MM
   &SUBSYS
     &CELL
       A     5.9791818979779947E+01   -5.3666300764197512E+00   -4.7164038954650858E+00
       B    -7.2890406411711002E+00    6.4150219444478637E+01    7.5880196386778289E+00
       C    -5.3123886551942165E+00    5.3614989909628701E+00    4.0218984909135663E+01
       PERIODIC  XYZ
       MULTIPLE_UNIT_CELL  1 1 1
     &END CELL
     &COORD
Br   -2.6034060441111027E+01    2.6992191192225857E+01    6.1170473709988675E+00
Br   -2.2128515948468063E+01    2.8567205065155736E+01    2.2252820266288758E+01
Br   -2.9756354516495276E-01   -2.1820032842881115E+01   -1.5173590318286550E+01
Br   -9.9407474120983643E+00   -1.1779956369013426E+01   -5.7988740234497858E+00
Br    7.4244702357572718E+00   -1.1388391448984567E+01    7.6601320063089515E+00
Br    3.5383857255739177E+00   -7.1023834866789690E-02   -1.8227734220975094E+01
Br   -2.4451968272059537E+00    1.4953739954026009E+00   -1.6708746759215596E+00
Br    5.0952404917055749E-01    2.9089286414237896E+00    1.3593776325769953E+01
Br   -3.3264263277751778E+00    2.2709155101297359E+01   -3.5312954515062769E+00
Br   -5.9256043704696926E-01    2.1277989046078755E+01    1.0810849288812298E+01
Br   -5.9050538817270013E+00    2.4880965000834838E+01    1.3375214207148497E+01
Br    1.5411444210912469E+01   -1.9852543164383331E+01   -1.7912205882785141E+01
Br    1.8580152876670116E+01   -1.0380145730288771E+01   -3.9958708062082553E+00
Br    1.8065407878541723E+01   -1.7521927641648144E+01    7.3269591401948890E+00
Br    2.0174808648635700E+01   -1.3729353311429950E+00   -1.1899179573148496E+01
Br    2.0023654834250603E+01   -7.7770636313218178E-02   -3.9404687621765899E-01
Br    1.2716315402805266E+01    9.0160384594403418E+00    5.8302941881927444E+00
Br    1.9268593058444502E+01    2.9102460288975141E+01   -6.9198491856041269E+00
Br    2.7117467563100227E+01    2.9027628467352606E+01   -3.1571851235915847E+00
Br    9.7363204167710435E+00    1.7098776817595677E+01    1.0126007531598471E+01
Pb   -3.2048651640273832E+01   -1.6473079448687841E+01   -1.8693027054565178E+01
Pb   -2.2264111692083482E+01   -2.0002906540327906E+01   -1.7211880538836313E+00
Pb   -3.1065800356895696E+01   -1.4715133020585199E+01    1.2222958014387498E+01
Pb   -1.5248503302702424E+01   -1.3394432797396400E+01   -2.5893846700908529E+01
Pb   -3.2259870606199037E+01    4.8502376904998048E+00   -5.7617037565562041E+00
Pb   -2.3721459616842722E+01   -3.1643804695969835E+00    5.3992096168296433E+00
Pb   -3.9648436282282923E+01    1.4739043833913763E+01   -1.5489218199091686E+01
Pb   -2.7709743716690170E+01    2.7754295738388990E+01   -9.1771581353553355E-01
Pb   -2.4542482800698902E+01    2.2255742994004720E+01    1.1169254746941041E+01
Pb   -3.3951954846834607E+00   -2.3349722397730218E+01   -2.2472702901916797E+01
Pb   -6.6977979294433911E+00   -1.8222261752089551E+01   -6.2683475972612079E+00
Pb   -1.3520089895228869E+01   -2.1684671296083447E+01    8.8553675737290742E+00
Pb   -9.9752569310145067E-01   -2.2861111162239252E+00   -2.4030302029121493E+01
Pb   -1.0035508402075768E+01    1.2908825363025480E+00   -8.0835470888808185E+00
Pb   -1.8539518296011732E+01    2.8021707436016428E+00    4.8334947484375776E+00
Pb   -1.0324193565675733E+01    1.7421843916624763E+01   -1.1028635820938925E+01
Pb   -1.2175531692305713E+01    2.9407863933071141E+01   -7.2329731935096031E-01
Pb   -1.8347524139500447E+01    2.7871664046114120E+01    1.6585663566195922E+01
Pb    1.4774408013211366E+01   -2.9998803177378196E+01   -2.6430831612818292E+01
Pb    1.3226763528502257E+01   -2.2243080079651090E+01   -1.2647208001919678E+01
Pb    2.0988363309795474E+01   -2.1828872980507800E+01    1.4471705994165462E+00
Pb    1.2631128213654904E+01   -4.0825761543018224E+00   -1.0392065491632275E+01
Pb    1.6810623795100732E+01   -2.6744147442093307E+00   -4.8012453966871833E+00
Pb    6.1755792275374388E-01    1.2261940797799387E+00    3.4235391014096450E+00
Pb    1.2854331289948988E+01    2.4408576648352316E+01   -1.8936935174145489E+01
Pb    6.9385949361004799E+00    2.2585675828822318E+01   -1.1079765604164777E+01
Pb    6.4516966814704180E+00    1.8940161750563679E+01    3.0387832886930113E+00
Pb   -2.6175346947674939E+01   -2.2211936430482087E+01   -1.4596652153132641E+01
Pb   -1.7279617619866620E+01   -2.2534606133712010E+01    1.8267020738421686E+00
Pb   -1.3379562425139921E+01   -1.4945302722330851E+01    1.4211463819238718E+01
Pb   -2.1408579630577584E+01   -3.6620842073895532E+00   -1.3998356933426217E+01
Pb   -1.7935518069645596E+01    1.8732147348458488E+00   -2.4483670481169439E+00
Pb   -1.1958831304357854E+01   -7.1470245563864054E+00    1.3178307042368987E+01
Pb   -1.7065445376379600E+01    2.1274446172913869E+01   -1.1084837989545919E+01
Pb   -2.3242385287272658E+01    2.7073333351280738E+01    6.4898533443531319E+00
Pb   -2.5346094444971097E+01    2.5480991073078268E+01    1.7806189081626503E+01
Pb   -5.2397724281858953E-02   -1.9862410648102809E+01   -1.1873415344548723E+01
Pb    1.5115094024439911E+01   -2.0604493829100861E+01   -1.2545474848446092E+00
Pb    6.8315075744557054E+00   -2.1228714774295664E+01    7.7377556747757144E+00
Pb    7.6660460141545972E-01    2.3858489409858050E+00   -1.6593771826458742E+01
Pb   -1.0020472195332200E+00    4.4814490563421066E+00   -2.6783736551088313E+00
Pb   -6.0144953532341339E-01    7.4929339813055373E-01    1.1923608506644060E+01
Pb   -5.1201426207809000E+00    2.0775924386268859E+01   -1.8660428770653363E+00
Pb    5.0428061193997529E+00    2.4610285846100460E+01    2.4280725743257081E+00
Pb   -4.2075784987514417E+00    2.2336625069414762E+01    1.1648376014000331E+01
Pb    1.7932635865759529E+01   -2.1135348959550250E+01   -1.6825672795375954E+01
Pb    2.7453089981961458E+01   -2.0360648138734003E+01    1.1987116376294464E+00
Pb    2.1484604086372940E+01   -1.7790684715816433E+01    6.8419703703880215E+00
Pb    2.0740947403844075E+01   -5.1318232077380221E+00   -1.1188318125646607E+01
Pb    2.4297952256760006E+01   -4.3841812329471956E+00   -5.1996221535629497E+00
Pb    6.7248553563108286E+00    2.6630112028937245E+00    1.0328887770118737E+01
Pb    1.6463511658531626E+01    2.1811899330547931E+01   -9.4790547419993896E+00
Pb    2.7853057915643049E+01    1.7456891613565823E+01   -3.7400122049256290E+00
Pb    9.2070397870611540E+00    2.0441881751473090E+01    8.4502059055463352E+00
Pb   -2.5900388827561329E+01   -3.3701864633171525E+01   -2.2393240687992389E+01
Pb   -2.6713208696976089E+01   -2.5003989434162232E+01   -3.5159126698753402E+00
Pb   -2.1554260230967426E+01   -3.5448626359782672E+01    5.6580406030230206E+00
Pb   -2.7412119582198297E+01   -1.4254784223725720E+01   -2.4801616860149160E+01
Pb   -2.7255331571770238E+01   -3.7184900608072322E+00   -5.1513314008050957E+00
Pb   -2.7726384797431383E+01   -1.1239490387154600E+01    3.7527399033478601E+00
Pb   -4.0540248389875138E+01    8.7665998002322425E+00   -1.3907875567220355E+01
Pb   -3.1651677941094967E+01    8.3052691263404128E+00    4.8492682239797436E+00
Pb   -2.9207862221345803E+01    1.5228020984472744E+01    7.4101161828482303E+00
Pb   -4.7407195217299405E+00   -3.4540989263980094E+01   -1.9924564124738087E+01
Pb   -8.6632618550258815E+00   -2.6425889636366829E+01   -1.2233601949817233E+01
Pb   -1.1187211008953964E+01   -2.5772682002072244E+01    1.3631107443302690E+00
Pb   -1.1739399412645502E+01   -1.7334417284980788E+01   -2.0703611273929102E+01
Pb   -1.1626534900768272E+01   -1.2911335468681040E+01   -3.2874707630680597E+00
Pb   -1.0229049059432569E+01   -8.3145933927062163E+00    1.7410459392792939E+00
Pb   -5.5468402511475627E+00    1.0891031322935346E+01   -1.5907173724065728E+01
Pb   -4.6242112015415104E+00    5.6300050783439541E+00   -8.7850968588140823E+00
Pb   -1.2632518632287756E+01    1.4801907715523365E+01    1.5552648424719647E+01
Pb    1.3683837913663405E+01   -3.8350880859694485E+01   -2.4273894515341407E+01
Pb    1.8157626521843173E+00   -2.9657817093521523E+01   -1.1421636159441922E+01
Pb    1.6114224442707062E+01   -2.6977249622288003E+01   -8.3295861717174513E-01
Pb    1.1704327775599467E+01   -8.4698871829168620E+00   -2.6141092136156246E+01
Pb    5.6311089936744514E+00   -5.8335553183869626E+00   -6.0600016446980618E+00
Pb    1.4320194070606419E+01   -1.0843515710934136E+01    2.2063917954436900E+00
Pb    1.7238206299034129E+01    7.9576936164993581E+00   -1.3928518531752420E+01
Pb    1.3835510298644303E+01    5.5752133604637466E+00   -4.4544496295539915E+00
Pb    1.1590143448510746E+01    7.1450970058694274E+00    4.0184143604666778E+00
Pb   -2.0471424766567601E+01   -2.4860281268219833E+01   -1.4474594499748941E+01
Pb   -1.1246980786175971E+01   -2.9481070436967872E+01   -5.1208194972023131E+00
Pb   -1.6794029399028712E+01   -3.3049995687800681E+01    1.5246861905909517E+01
Pb   -1.7628252846294913E+01   -1.3082680059445250E+01   -1.8546586892907666E+01
Pb   -1.9524792121564939E+01   -1.0718392380211188E+01   -3.8304092087736326E+00
Pb   -2.4752334658141763E+01   -1.2757121939626686E+01    1.2583434958638279E+01
Pb   -9.6582267931725188E+00    9.8733700825889663E+00   -1.1513812083341742E+01
Pb   -1.9102377444385940E+01    1.0668050983437372E+01    1.5450542237344675E+00
Pb   -1.7302591646538357E+01    1.3266534442219781E+01    2.2378259428662659E+01
Pb   -3.3324878751880140E+00   -2.6689606462458304E+01   -1.5017196674237269E+01
Pb   -6.2295576550196219E-01   -3.0348243311908252E+01   -5.4790204445831163E+00
Pb    5.4165048161406304E+00   -3.5720821333648743E+01    1.0954341869233208E+01
Pb   -5.5458253839614855E+00   -1.5800865509639866E+01   -2.1875848758108429E+01
Pb   -3.1637216566640376E+00   -4.6962356659898399E+00    7.5724784415749646E-01
Pb    5.0840572960009673E+00   -1.3466827723346524E+01    7.2166988148797113E+00
Pb    3.2874749011785602E+00    1.3736742949374028E+01   -1.4757098068259511E+01
Pb    6.5652801516985182E+00    4.1113578953732137E+00   -5.5484293719084776E-01
Pb   -6.0059717938423152E+00    1.3941278638525741E+01    1.3532626466197426E+01
Pb    2.3718964612295419E+01   -3.4454780350958025E+01   -1.4964413591429411E+01
Pb    1.4858776108769893E+01   -3.6541360985771789E+01   -1.1303546245774870E-01
Pb    1.9132960904895445E+01   -3.3764700208980926E+01    6.8732862844319591E+00
Pb    2.6715197082782918E+01   -1.1079226605518906E+01   -1.4169848295308771E+01
Pb    1.9981682824311630E+01   -7.0406419679880861E+00    4.0313296675951557E-02
Pb    1.4366640268262529E+01   -5.3011494578657601E+00    1.2666947486328670E+01
Pb    1.7265656976295151E+01    3.3548182415349320E-01   -1.1739714981562571E+01
Pb    1.9956479109949012E+01    3.7102530992733813E+00    5.7750973929283196E-02
Pb    9.7483850534378647E+00    1.6231528080839905E+01    1.6394350997015181E+01
Cs   -1.6658321373183483E+01   -3.4963164934577769E+01   -2.1194503177728766E+01
Cs   -1.4118991743541743E+01   -1.9607128088592869E+01   -6.5437746054079255E+00
Cs   -1.7925258884764407E+01   -1.7430359195226814E+01    1.9827914410541791E+01
Cs   -6.7825427872781150E+00   -3.3203061571685271E+00   -1.6152935088834379E+01
Cs   -1.0601033171782101E+01   -8.2652476598980886E+00   -1.1633647996529891E+01
Cs   -1.8752097215648313E+01   -5.9504077652118612E+00    6.4371621763369458E+00
Cs   -1.8404942905726042E+01    7.4094625754951879E+00   -1.4828604971547504E+01
Cs   -1.5517320315004206E+01    1.5436137256510671E+01   -7.2872962166261965E+00
Cs   -2.4268706674231627E+01    1.8258295265024177E+01    3.4165340156011572E+00
Cs    7.2027818186531318E+00   -3.5280294365003968E+01   -2.6173318937128705E+01
Cs   -4.8567473441856865E+00   -2.3509077862673433E+01   -6.0903985437353363E+00
Cs    8.7033394292551147E+00   -2.5631495772765501E+01   -2.5474421009519586E+00
Cs    3.7373358337310267E+00   -4.7341365079398487E+00   -2.1505635122771007E+01
Cs   -4.5595425422387486E+00    9.7851866746688176E-01   -6.0956538950908135E+00
Cs   -5.7586447781616767E+00    1.2486007796842611E+00    8.1894009246895774E+00
Cs   -1.6251187546148234E+00    1.4708066182675360E+01   -2.0664529900868377E+01
Cs    2.6018183760146005E+00    1.9699566135945467E+01   -7.1449916283112289E+00
Cs   -4.1804846871551442E+00    1.6286666580915249E+01    6.9356286078927791E+00
Cs    2.3659041222872499E+01   -3.5016326281204293E+01   -2.8193865123085747E+01
Cs    1.3778984919297370E+01   -2.9556098603316503E+01   -1.2896871467510330E+01
Cs    2.4217642115285535E+01   -4.2212252902723264E+01    1.4837633354843309E+00
Cs    1.7235740154760823E+01   -3.2706583926492732E+00   -1.5656246761195851E+01
Cs    2.1441427385618208E+01   -9.0095075447751221E+00   -7.1065331703724341E+00
Cs    2.0705149340852518E+01   -4.4445984596625010E+00    5.8011813428165029E+00
Cs    1.7997955063354702E+01    1.3315071179338549E+01   -2.4218137545036429E+00
Cs    2.1909537021503215E+01    1.1180081388460923E+01    5.4377552313467481E+00
Cs    1.2874083356120428E+01    1.5901831104745451E+01    1.2962106499403538E+01
Cs   -5.0005233012849963E+00   -1.2452615051476005E+01   -1.7349836055064412E+01
Cs    4.3549140734575120E+00   -1.1660762965507661E+01   -4.0451551831214987E+00
Cs   -8.4117757556998995E+00   -1.9092402545776260E+01    1.1021280744487713E+01
Cs   -1.4937685844801774E+01   -1.9808939108390899E+00   -1.3677816196976424E+01
Cs   -1.1292396410885347E+01    1.8542304386938923E+01    1.0990922027276207E+01
Cs   -1.1952905591922098E+01    1.0967142158788017E+00    9.1435663166943293E+00
Cs   -8.0033158361756005E+00    3.0503803005657009E+01   -7.0427408568552883E+00
Cs   -6.5195643345908492E+00    2.9691235277174357E+01    1.4789634322928547E+01
Cs   -1.0620983382490651E+01    3.4853421210744038E+01    1.9156764452496180E+01
Cs    2.1637082903318991E+01   -1.2356064031970860E+01   -1.7781978467155866E+01
Cs    1.4665136359618595E+01   -8.9705919322218648E+00   -3.8988034421972357E+00
Cs    1.3102535663062483E+01   -1.5652225355354311E+01    8.0399474308884997E+00
Cs    9.0101406666243538E+00    1.1157845654794011E+01   -1.2404071954897807E+01
Cs    1.1348455920311059E+01   -4.7143099964842055E+00   -7.8956468459394125E-01
Cs    3.6395033128862955E+00    1.3964112348099313E+01    1.4693248560842575E+01
Cs    2.7668509600970923E+00    2.8263040331008540E+01   -9.8741435427511544E+00
Cs    1.0560852595261521E+01    2.6549891897507401E+01   -4.4517377469438424E+00
Cs    3.5606033003677355E+00    3.4601922936754200E+01    1.1271338985708908E+01
Cs    2.9873157381954510E+01   -1.5148472314835232E+01   -1.0470655083197807E+01
Cs    4.1395985457046045E+01   -1.6776659421169924E+01   -1.5662008160504699E+01
Cs    2.2081953392020736E+01   -1.1041063372714870E+01    1.1809584666787776E+01
Cs    3.0508249003640952E+01   -7.4129238669272111E+00   -1.5710542390817883E+01
Cs    3.2943187119450236E+01   -1.2460487774546256E+00   -6.6625951667639169E+00
Cs    3.5514341564717846E+01   -9.9715990985426675E-02    1.0441282948258515E+01
Cs    2.6364166602993528E+01    1.7695985185326219E+01   -1.2325684159144995E+01
Cs    3.1847003554843052E+01    2.8236449114344516E+01   -7.2019538382102088E-01
Cs    2.7649404465769589E+01    2.7084839816146975E+01    1.4655959635538320E+01
Cs   -1.1363970701255253E+01   -1.5070319171945979E+01   -1.5066926827495564E+01
Cs   -1.6219625997870281E+01   -1.1648455373714276E+01    2.5348187929494186E+00
Cs   -2.3649538584649871E+01   -1.2644305611148049E+01    1.8748328886791541E+01
Cs   -1.5819757700580388E+01    6.5005555175483760E+00   -8.5665882014865069E+00
Cs   -2.5321164180433946E+01    2.8509788940937542E+00    6.2453776004214188E+00
Cs   -1.4488510822682429E+01    2.2101919582158382E-02    1.5556266300339022E+01
Cs   -1.7009077289555407E+01    3.1877273553929289E+01   -2.9668944794547563E+00
Cs   -1.7831310550072164E+01    2.9606862003200739E+01    1.1450490183225645E+01
Cs   -3.8992657535948474E+01    2.2532106232714831E+01    2.3605800202436033E+01
Cs    1.9975957737904773E+00   -9.8676788536817028E+00   -2.0219186183223954E+01
Cs   -9.6268413182627507E-02   -1.2734210897269806E+01    3.9554719648077046E+00
Cs    2.7868917984355792E+00   -9.7383616882241579E+00    1.3560841701085042E+01
Cs    5.0450172015676360E+00    4.2081243695413981E+00   -8.3919122320587274E+00
Cs   -8.4782268240912201E-02    6.5058623494038406E+00    5.1937888060146511E+00
Cs   -4.8386634921233567E+00    7.3048104672756429E+00    1.8392272839355591E+01
Cs   -3.2205192868777814E+00    2.6225012029466445E+01    3.8985831893061068E-01
Cs    2.7659952671839925E+00    2.2183515293580584E+01    7.6373935972063043E+00
Cs   -7.2922765386455968E+00    2.6638295362658212E+01    2.9235606585038703E+01
Cs    1.8171426197349678E+01   -2.5000653171295003E+01   -1.2454401748393993E+01
Cs    2.6669976856887150E+01   -1.6220743146849721E+01    3.8369271859612084E+00
Cs    2.6576873294324685E+01   -1.1693088980103806E+01    1.7758005253243297E+01
Cs    2.4713537817921086E+01    1.9013209302783827E+00   -4.2570603031337697E+00
Cs    1.4547686447180856E+01    7.2145951655013842E+00    1.1476511906155009E+01
Cs    8.0588115974394601E+00    1.0387209665284313E+01    1.7715334307464268E+01
Cs    2.4291682284178489E+01    2.6566844184455253E+01   -5.8022156462516117E+00
Cs    1.1954434624206469E+01    2.4210754468327586E+01    2.9528065179536447E+00
Cs    1.4595065285400960E+01    2.6742396239966808E+01    2.3542025156252496E+01
Cs   -2.8403936910396165E+01   -2.7261549045581553E+01   -1.1114045281591446E+01
Cs   -1.9505072870147174E+01   -2.7994387186658006E+01    1.2813879352355604E+01
Cs   -3.3992145052081788E+01   -1.5210742056687650E+01    1.8174636669677010E+01
Cs   -3.3882658546198918E+01   -5.2424073141957619E+00   -1.8982248134918791E+01
Cs   -3.1058631675850094E+01   -3.2793216389104116E+00    4.2249110049529577E+00
Cs   -2.8244476211878041E+01   -4.3328872076716820E+00    1.2095929124098078E+01
Cs   -2.2475465454287974E+01    2.3861828835761195E+01   -2.4482644133102793E+00
Cs   -1.5654062343483750E+01    2.5074866837589141E+01    3.7303332706188136E-01
Cs   -2.2201750545778260E+01    1.6783502201546796E+01    1.7825192631682889E+01
Cs   -5.4411767575405614E+00   -2.0074699419642453E+01   -1.3951587274689865E+01
Cs   -1.0396327288184084E+01   -2.4251116013597834E+01   -4.0408823899700206E+00
Cs   -5.0335647215368973E-01   -2.3632766734067246E+01    5.7288188421562660E+00
Cs   -2.3294123074616131E+00   -5.6150526663509419E+00   -8.3677096753542006E+00
Cs   -1.3061626551836200E+01   -7.3251263429825784E+00   -4.7469731211672075E+00
Cs   -1.0153137256365540E+01   -1.3606550720002625E+01    5.3349988044908736E+00
Cs    2.1222025793685781E-01    1.0737120159649985E+01   -9.1786714349305711E+00
Cs   -1.9835009786170836E+00    1.1956485797303325E+01   -1.7454959723237169E+00
Cs   -1.3088534419997151E+01    2.3884756725089254E+01    1.3869456829295114E+01
Cs    1.8616090686345352E+00   -3.4386482401889808E+01   -2.1381126638902870E+01
Cs    1.2262727356168922E+01   -2.1539190527234712E+01   -7.4757882903479338E+00
Cs    1.5337922091707966E+01   -2.0761193097925123E+01    5.3709099510631564E+00
Cs    1.0868195874046519E+01   -7.4195746177807669E+00   -1.8598388701849274E+01
Cs    4.7454509653026991E+00   -5.5291931418482445E+00    2.7597577841276695E+00
Cs    2.6285933801309294E+00   -4.3869336238358310E+00    9.6381573177450104E+00
Cs    1.2104201507354217E+01    1.2543268807420075E+01   -1.7335799320911118E+01
Cs    1.0834696392822634E+01    1.1791274219342050E+01   -1.8911010674837869E+00
Cs    3.0587738900312185E+00    2.3727108757281588E+01    1.9677904749215180E+01
Br   -2.7325058755704351E+01   -1.9675732111548911E+01   -1.5819066389729503E+01
Br   -2.7735544405629369E+01   -1.5198087214491872E+01    5.4547502029138144E+00
Br   -2.8055300853135321E+01   -1.5809414446444210E+01    1.1464159343842914E+01
Br   -2.5402966282777374E+01   -3.8384756665382280E+00   -1.4579925627012239E+01
Br   -2.6745582498609245E+01    9.5638587892566806E-01   -4.8688034910721063E+00
Br   -2.3044898152446656E+01   -2.8626717422581849E+00    8.2646381400303035E+00
Br   -1.6516801279856541E+01    2.3618770192538864E+01   -1.2967233413535055E+01
Br   -2.1559639733260685E+01    2.6021641412428114E+01    4.4518896949200144E+00
Br   -2.5876832336602639E+01    2.2387109098449759E+01    1.9570636363732216E+01
Br   -1.0619570640367332E+01   -1.9404797659079467E+01   -1.8225325119629748E+01
Br   -4.3205250249266829E+00   -1.9653071244935752E+01   -5.3069586452003357E+00
Br   -6.8657051020981550E+00   -1.3053132502986113E+01    3.0247291807489045E+00
Br    6.1207999286519152E+00   -8.8113947574729874E+00   -1.8908356314390620E+01
Br    1.5463994204405167E+00    2.7791293135045203E+00   -3.0688990340847551E+00
Br   -3.9282732063129178E+00   -3.3681719331526672E-01    1.3825904112125667E+01
Br   -8.5790591246348722E+00    1.7579651802922477E+01   -1.3362131324396012E+01
Br    3.0452664244316732E+00    2.2205675908916362E+01    3.1779497332942377E+00
Br   -1.6022893893428627E+01    2.5438297545627861E+01    1.2668615390904788E+01
Br    1.5909180381992149E+01   -1.3157826200111534E+01   -1.6547452439055913E+01
Br    1.8708803459226516E+01   -2.5702206552560192E+01   -9.5799502303778983E-01
Br    2.1685199987512561E+01   -1.9414077101553559E+01    3.1473935230136352E+00
Br    1.9353459679604725E+01   -5.8639346542894417E+00   -8.9822947802333335E+00
Br    1.8394097383746807E+01   -5.6401467258106210E+00   -3.1297331710020595E+00
Br    1.0613399766115444E+01    5.2586639221690294E+00    1.0964656142674198E+01
Br    1.8780059940684257E+01    2.2189558355029870E+01   -1.1510808897821127E+01
Br    2.3834270259370784E+00    2.2410339935163922E+01   -1.1403891884549306E+01
Br   -4.1828008114566853E+00    2.8692974624670871E+01    1.1045129898107909E+01
Br   -2.3960737888580667E+01   -3.1473556611557587E+01   -1.2321507719108487E+01
Br   -1.1172178829487850E+01   -1.7736527466903372E+01    6.8801777368284140E+00
Br   -3.3218045512068024E+01   -5.7277752135200828E+00    1.4520994794654461E+01
Br   -3.0432068138200140E+01    6.3830975661804930E+00   -7.9577228172589969E+00
Br   -3.5752404710026376E+01   -1.0151400164777542E+00    1.8834519000855636E+00
Br   -1.8557875939405836E+01   -1.0115290287413687E+01    1.7123980182103214E+01
Br   -2.6862391115547890E+01    2.6414182625048554E+01   -3.4363361796811565E+00
Br   -2.1935800119836227E+01    2.2385915809596476E+01    8.7702927620423061E+00
Br   -4.5407048307995879E+01    2.0920914772793971E+01    2.1965407688544023E+01
Br   -1.3770849914237449E+00   -1.9284304271800803E+01   -8.8837079609307974E+00
Br    1.2715358454517554E+01   -1.8725848010236071E+01   -1.6213634762848934E+00
Br   -7.0970163211570636E+00   -2.2623106786279823E+01    1.8382905406074133E+01
Br   -2.9463529710100039E-01   -2.1918147918824998E-01   -1.5020897249797782E+01
Br   -1.6710465998886043E+01    4.5398280820618044E+00    2.9602621226222858E+00
Br   -5.0062986100636939E+00    3.4114714797478594E+00    1.9085754639292539E+01
Br   -1.2690427912981660E+01    3.3015086543367531E+01    8.3766002857070554E-01
Br    7.8289045580637637E+00    2.2378224011570428E+01    2.0062582654370753E+00
Br   -1.2231872720104231E+01    1.6571052271717544E+01    2.7104755730912419E+01
Br    1.4864979065821377E+01   -2.4777363637626312E+01   -1.5489187877240653E+01
Br    2.4482781256831963E+01   -2.1781982341312112E+01    9.7329889375434797E-01
Br    1.0875504133233514E+01   -2.6805257808880633E+01    1.2098148015053432E+01
Br    1.8151567841992609E+01    1.1307813003936285E-01   -7.1983421791203028E+00
Br    7.8852598344494398E+00   -5.7445852033960714E+00    1.1423967556295833E+00
Br    8.8288596556392989E+00    1.1627048386824395E+00    2.6867343433750367E+01