 # Version information for this restart file 
 # current date 2020-12-23 15:02:23.763
 # current working dir /Users/bvanbeek/Downloads/MM_MD_workdir/md
 # Program compiled at                             Fri Apr 19 11:24:34 CEST 2019
 # Program compiled on                                             192.168.1.124
 # Program compiled for                           Darwin-IntelMacintosh-gfortran
 # Source code revision number                                         svn:18464
 &GLOBAL
   PRINT_LEVEL  LOW
   PROJECT_NAME cp2k
   RUN_TYPE  MD
 &END GLOBAL
 &MOTION
   &MD
     ENSEMBLE  NPT_F
     STEPS  10000
     TIMESTEP     2.4999999999999996E+00
     STEP_START_VAL  9500
     TIME_START_VAL     2.3749999999995998E+04
     ECONS_START_VAL    -5.5495911227455137E+00
     TEMPERATURE     3.0000000000000000E+02
     &BAROSTAT
       PRESSURE     1.0100000000000000E+00
       TIMECON     4.9999999999999994E+02
       &VELOCITY
            -5.4377050197478470E-07   -1.9349159602082538E-06   -3.5025516629194614E-06   -1.9349159602082542E-06 \
             1.4314498469145759E-06   -3.1637094887908856E-07   -3.5025516629194614E-06   -3.1637094887913604E-07   -3.2229741590008782E-06
       &END VELOCITY
       &MASS
             2.1920353963970435E+08    2.1920353963970435E+08    2.1920353963970435E+08    2.1920353963970435E+08 \
             2.1920353963970435E+08    2.1920353963970435E+08    2.1920353963970435E+08    2.1920353963970435E+08    2.1920353963970435E+08
       &END MASS
       &THERMOSTAT
         TYPE  CSVR
         &CSVR
           TIMECON     9.6755373060191392E+00
           &THERMOSTAT_ENERGY
                 3.8331092175087272E-01
           &END THERMOSTAT_ENERGY
           &RNG_INIT
Wiener process for Thermostat # 1        1 F T F  -9.5594393955696966E-01        3930908438.0        3903618217.0        2515132940.0         311777737.0        2606359998.0        1758953814.0             12345.0             12345.0             12345.0             12345.0             12345.0             12345.0             12345.0             12345.0             12345.0             12345.0             12345.0             12345.0
           &END RNG_INIT
         &END CSVR
       &END THERMOSTAT
     &END BAROSTAT
     &THERMOSTAT
       TYPE  CSVR
       &CSVR
         TIMECON     4.9999999999999994E+02
         &THERMOSTAT_ENERGY
              -3.7835050642277634E+00
         &END THERMOSTAT_ENERGY
         &RNG_INIT
Wiener process for Thermostat # 1        1 F T F  -5.4323654742418959E-01        3806052942.0        1862448888.0        3580706141.0        1810879820.0        1639412253.0        2478107923.0             12345.0             12345.0             12345.0             12345.0             12345.0             12345.0             12345.0             12345.0             12345.0             12345.0             12345.0             12345.0
         &END RNG_INIT
       &END CSVR
       &PRINT
         &TEMPERATURE  ON
           FILENAME 
           &EACH
             MD  10
           &END EACH
         &END TEMPERATURE
       &END PRINT
     &END THERMOSTAT
     &AVERAGES  T
       &RESTART_AVERAGES
         ITIMES_START  1
         AVECPU     2.9498118947407049E-02
         AVEHUGONIOT     0.0000000000000000E+00
         AVETEMP_BARO     8.1393683435814489E+02
         AVEPOT    -4.2481114854902104E+00
         AVEKIN     6.8466128186094743E-01
         AVETEMP     2.6740714311987261E+02
         AVEKIN_QM     0.0000000000000000E+00
         AVETEMP_QM     0.0000000000000000E+00
         AVEVOL     5.2162204196373798E+07
         AVECELL_A     3.7534615627709309E+02
         AVECELL_B     3.8193768472557917E+02
         AVECELL_C     1.9064630417190722E+02
         AVEALPHA     7.0721694139987179E+01
         AVEBETA     1.1190845550025990E+02
         AVEGAMMA     1.0795654003596742E+02
         AVE_ECONS    -1.4377274153516271E+00
         AVE_PRESS     2.9491056503467448E+00
         AVE_PXX     2.5452112070487720E+00
       &END RESTART_AVERAGES
     &END AVERAGES
   &END MD
   &PRINT
     &TRAJECTORY  ON
       &EACH
         MD  10
       &END EACH
     &END TRAJECTORY
     &CELL  ON
       FILENAME 
       &EACH
         MD  10
       &END EACH
     &END CELL
     &FORCES  ON
       FILENAME 
       &EACH
         MD  10
       &END EACH
     &END FORCES
   &END PRINT
 &END MOTION
 &FORCE_EVAL
   METHOD  FIST
   STRESS_TENSOR  ANALYTICAL
   &MM
     &FORCEFIELD
       VDW_SCALE14     1.0000000000000000E+00
       EI_SCALE14     1.0000000000000000E+00
       SHIFT_CUTOFF  T
       DO_NONBONDED  T
       IGNORE_MISSING_CRITICAL_PARAMS  T
       &SPLINE
         R0_NB     1.0000000000000001E-01
       &END SPLINE
       &NONBONDED
         &LENNARD-JONES
           ATOMS Cs Cs
           EPSILON     2.2644852172126850E+01
           SIGMA     5.8500000000000005E+00
         &END LENNARD-JONES
         &LENNARD-JONES
           ATOMS Cs Pb
           EPSILON     8.6920055954630953E+01
           SIGMA     5.1000000000000005E+00
         &END LENNARD-JONES
         &LENNARD-JONES
           ATOMS Br Pb
           EPSILON     2.0528187276773045E+02
           SIGMA     2.9000000000000004E+00
         &END LENNARD-JONES
         &LENNARD-JONES
           ATOMS Br Cs
           EPSILON     5.3481070753900497E+01
           SIGMA     3.8500000000000005E+00
         &END LENNARD-JONES
         &LENNARD-JONES
           ATOMS Br Br
           EPSILON     1.2630795322675199E+02
           SIGMA     4.2599999999999998E+00
         &END LENNARD-JONES
         &LENNARD-JONES
           ATOMS Pb Pb
           EPSILON     3.3363415533600221E+02
           SIGMA     5.9800000000000004E+00
         &END LENNARD-JONES
       &END NONBONDED
       &CHARGE
         ATOM Cs
         CHARGE     2.0000000000000001E-01
       &END CHARGE
       &CHARGE
         ATOM Pb
         CHARGE     4.0000000000000002E-01
       &END CHARGE
       &CHARGE
         ATOM Br
         CHARGE    -2.0000000000000001E-01
       &END CHARGE
     &END FORCEFIELD
     &POISSON
       PERIODIC  XYZ
       &EWALD
         EWALD_TYPE  SPME
         GMAX  22
         O_SPLINE  4
       &END EWALD
     &END POISSON
     &PRINT
       &FF_INFO  LOW
         SPLINE_INFO  F
         SPLINE_DATA  F
       &END FF_INFO
     &END PRINT
   &END MM
   &SUBSYS
     &CELL
       A     5.1157054428913517E+02   -1.4085303734116061E+02   -1.2097074542672306E+02
       B    -2.0002929664088472E+02    4.1390142349118327E+02    1.1195850923545966E+02
       C    -1.3077546378528675E+02    8.0839039274896251E+01    1.7605325866492430E+02
       PERIODIC  XYZ
       MULTIPLE_UNIT_CELL  1 1 1
     &END CELL
     &COORD
Br   -2.5680726284637194E+02    2.1273288253625043E+02    1.2493825973458107E+02
Br   -3.0050688139353298E+02    2.3520728944390055E+02    1.7003966637899254E+02
Br    4.4540582119715474E+01   -1.4695774204801543E+02   -4.9024185576332229E+01
Br   -8.8964883819328776E+01   -2.2355316875996692E+01    4.1375961680610772E+01
Br    8.9771993701051841E+01   -1.0902402281645419E+02   -2.0636287052410996E+01
Br    4.3832112637601384E+01   -2.1549408189342088E+01   -5.3932093444622879E+01
Br    7.4430151902371422E-01    2.9267921604885121E+00   -1.8559772402491184E+01
Br   -1.5947159577325770E+01    1.4274766764425451E+01    4.0714325446984340E+01
Br   -8.2257043167739411E+01    1.2869440965548500E+02    4.3689541707278536E+01
Br   -8.4729236461994503E+01    1.5927668492344475E+02    7.6317062668411154E+01
Br   -1.0879516539513696E+02    1.6594394782746625E+02    9.8023861775534172E+01
Br    2.1327786050751504E+02   -1.6842211756085879E+02   -1.2995010251884793E+02
Br    1.6783834987357619E+02   -6.4732855966852597E+01   -3.4552454016874378E+01
Br    2.2192292498232098E+02   -1.2415034887504737E+02   -3.6640166877399380E+01
Br    1.7566015350803087E+02   -8.8653681764404638E+01   -4.2636147010323185E+01
Br    1.5294842599500913E+02   -3.3144795384445985E+01   -2.5051974524664608E+01
Br    7.3586338011436979E+01    1.3445428618662715E+01   -2.0869375891349492E+01
Br    9.1475769744962946E+01    1.6170684361553458E+02   -5.9842510509046161E+00
Br    1.8290189914303397E+02    1.3483493644116473E+02   -2.1170787594293447E+01
Br    2.0528982484334744E+01    1.0729872381046673E+02    3.1835318625043769E+01
Pb   -1.9094046624450786E+02   -6.7152088755379751E+01   -3.8133905472921462E+01
Pb   -1.0767251517185362E+02   -1.0676312863651897E+02    2.3970732426787091E+01
Pb   -2.4208513690377450E+02   -2.0059542750761512E+01    7.5523250277188211E+01
Pb   -7.3329849385568878E+01   -1.3175406266920547E+02   -1.1150713976836036E+02
Pb   -2.6404448043461599E+02    7.6627548345907911E+01    4.0704750772822358E+01
Pb   -1.7957229790028509E+02    2.8741566691532555E+01    4.5798553302796371E+01
Pb   -3.4295073587015452E+02    1.3318967961226656E+02    1.7141096651506793E+01
Pb   -2.7927820986380095E+02    2.0290892768021780E+02    5.4643147505110086E+01
Pb   -2.6404583099796508E+02    1.8796638280159883E+02    1.0326942760242396E+02
Pb    4.6507467724293797E+01   -1.5426607098181995E+02   -8.1675082517349210E+01
Pb   -6.8365178201560859E+00   -1.2083851106040737E+02   -2.0503822151725192E+01
Pb   -8.5078493899295850E+01   -9.3996826387232545E+01    6.1862223714468172E+00
Pb    5.2908761533918700E+01   -4.4702161524475436E+01   -1.2679445798623722E+02
Pb   -5.0693952911990465E+01    2.2538656237344032E+01   -4.4050360503457471E+00
Pb   -1.7457645427997443E+02    5.3198505278225426E+01    4.1480085550111859E+01
Pb   -1.0795050836464598E+02    1.1565972960593422E+02   -4.2727724538480656E+00
Pb   -1.2760321851139494E+02    2.5233944407289408E+02    5.6957104961715110E+01
Pb   -2.4007369501175097E+02    2.3521791510070750E+02    1.3541716810025582E+02
Pb    2.2543393069880349E+02   -2.5480619899482397E+02   -1.7972199259448109E+02
Pb    1.8902247139910597E+02   -1.8709228115677502E+02   -1.0076735778220872E+02
Pb    2.0341000091594589E+02   -1.5056887360453007E+02   -5.1144980052456624E+01
Pb    1.3589432759433944E+02   -5.4545847647362258E+01   -4.6149428716128334E+01
Pb    1.8223309565295830E+02   -6.5316002238546560E+01   -5.5425149430733548E+01
Pb   -8.5532395266170074E+00    1.4159453772884966E+01    4.7802588765064371E+00
Pb    7.4678678339119259E+01    1.1585734666818148E+02   -5.1878677844712016E+01
Pb    1.4208185763653869E+01    1.3456346892259839E+02   -2.1560109925843342E+01
Pb    1.6092480817363345E+01    1.0997134630015660E+02    3.5633982465526003E+01
Pb   -1.5699719618212700E+02   -1.0239834656125731E+02   -3.3831978078570401E+01
Pb   -1.0675137863669579E+02   -1.1115987809949686E+02    8.3970208417736258E-01
Pb   -1.1165887904304051E+02   -5.9123308837842096E+01    8.1889865991365014E+01
Pb   -1.5677631479100367E+02    4.2121729595316495E+00   -3.2550008881389019E+01
Pb   -1.4792237604654269E+02    3.3839666745764283E+01    3.1123877780200221E+01
Pb   -1.2549915943896163E+02   -2.0658680778415995E+01    5.7109298073679824E+01
Pb   -1.6089492701807532E+02    1.5147944207812682E+02   -6.5900284606593793E+00
Pb   -2.5167201440466016E+02    2.0569357548882468E+02    1.2376894190747252E+02
Pb   -3.0117004498085356E+02    2.2889458803672488E+02    1.1714731895934996E+02
Pb    6.6560519003556621E+01   -1.5051745307770642E+02   -6.4126952615844260E+01
Pb    2.1589933173929793E+02   -1.6622063178194290E+02   -7.5688190816261780E+01
Pb    1.1024319593541321E+02   -1.3385298771885653E+02   -1.2365851774669649E+00
Pb    2.8659186132102800E+01   -1.5887325579923772E+00   -7.9044293126621540E+01
Pb    4.9686849755114544E+00    7.3992760925293339E+00   -1.7789441100961497E+01
Pb   -1.8637514505077931E+01    1.3174237902139867E+01    4.1948405366256502E+01
Pb   -8.2348678917380454E+01    1.3228760135322159E+02    4.2722072530310150E+01
Pb    9.6631437177990662E+00    1.4351441331331253E+02    4.3123028973368186E+01
Pb   -1.0745081187885067E+02    1.6279634522146833E+02    9.6426630048421160E+01
Pb    1.9949436167798592E+02   -1.8377962559348452E+02   -1.0947242500299828E+02
Pb    2.5986746698675728E+02   -1.5815523386764809E+02   -4.8827655764575731E+01
Pb    2.0458536140281478E+02   -1.5808433575287111E+02   -3.9481894848998714E+01
Pb    2.1156972748651572E+02   -7.9791408537337404E+01   -8.2584661285257042E+01
Pb    2.1678286387938235E+02   -7.2526309332706418E+01   -6.1419020128229135E+01
Pb    2.4802398411675959E+01    2.3825320390620863E+00    2.4866963386806436E+01
Pb    7.5612710354900884E+01    1.1201931696386667E+02   -4.7445478747727719E+01
Pb    2.1959262169574623E+02    5.8904066064415808E+01   -3.6802729107677443E+01
Pb    1.1940073086034744E+00    1.1750150241085271E+02    2.9479744131743704E+01
Pb   -1.1251778154398406E+02   -1.7291382717934724E+02   -9.7112462633933021E+01
Pb   -1.4312945653287611E+02   -1.1335070077815145E+02    3.1138294651296197E+00
Pb   -9.2206453107881117E+01   -2.0113440286098864E+02    3.1566989145228533E+01
Pb   -1.5570455015734291E+02   -5.0774370906278953E+01   -7.6704739184547222E+01
Pb   -2.6217120598373754E+02    2.6694268318203974E+01    2.8443262505713722E+01
Pb   -2.1420578807375423E+02   -1.2698085303971089E+01    4.9094324677891812E+01
Pb   -3.6847474526580658E+02    1.1793004782486963E+02    2.4168609502278681E+01
Pb   -3.0156581640796867E+02    1.1358478610713135E+02    9.0516526322791961E+01
Pb   -2.9412630315659476E+02    1.5165845471675487E+02    8.3743501087313476E+01
Pb    5.7289678639001536E+01   -2.2449748387200555E+02   -1.0504060664033345E+02
Pb    6.4970986012436205E+00   -1.5088990452936775E+02   -7.1648068434359800E+01
Pb   -5.8343122803446576E+01   -1.3634027492834790E+02    1.7815271486805839E+00
Pb   -2.6967850211085693E+01   -9.1765185456239905E+01   -8.9610086124643146E+01
Pb   -5.2555974895990708E+01   -4.7868064471678821E+01   -2.9212695276803476E+01
Pb   -7.9008641401569491E+01   -3.4025533734510809E+01    2.5144179640958320E+01
Pb   -4.5814961791389265E+01    5.3386034053187686E+01   -3.4588894811028702E+01
Pb   -4.6703051317706887E+01    3.2908281292978806E+01   -1.2193631191439398E+01
Pb   -1.4361800020996714E+02    1.6204672159382429E+02    1.2107828760497772E+02
Pb    2.5990398910357482E+02   -2.9079262809410324E+02   -1.8443334948754062E+02
Pb    5.3598248778096547E+01   -1.9525942906673637E+02   -6.2844415281130793E+01
Pb    2.0360412587782150E+02   -1.7141054261426851E+02   -4.8948657176708515E+01
Pb    1.3674088318541612E+02   -7.5695714830897927E+01   -1.4834362641046636E+02
Pb    7.6876701721768356E+01   -5.0912221340070467E+01   -3.8403939772385137E+01
Pb    1.5001858244955969E+02   -8.8594179594438202E+01   -3.1790991506533128E+01
Pb    1.6648952792966506E+02   -1.3558243171764444E+01   -9.5591894833084922E+01
Pb    1.0503856925085343E+02    1.2166126876635767E+01   -1.1775393183009738E+01
Pb    6.6175993604414316E+01    7.0401600809695370E+00   -1.5377082060951954E+01
Pb   -1.2576331083893000E+02   -9.5476002663243790E+01   -6.6268241389827480E+01
Pb   -1.0905672027109949E+01   -1.6578582087350634E+02   -3.9618785042627344E+01
Pb   -1.1161002572207137E+02   -1.7073794669918848E+02    7.0089366088276250E+01
Pb   -6.3110243120220900E+01   -8.3131940055854329E+01   -8.6295290205906340E+01
Pb   -1.3383730907512779E+02   -5.4122069896428826E+01   -5.3453616568664879E+00
Pb   -1.7859130509294963E+02   -2.5081825641636854E+01    9.1261664187651363E+01
Pb   -5.2513766938875136E+01    7.3643873262155878E+01   -1.7262154648462715E+01
Pb   -1.8714412083473712E+02    8.9160297460419471E+01    6.2032479266560649E+01
Pb   -2.0788266373593757E+02    1.4066341809274834E+02    1.4487900733683674E+02
Pb    3.0192164509644723E+01   -1.5387964269861735E+02   -9.0229113661810089E+01
Pb    5.1486257430765633E+01   -2.0885833594713887E+02   -6.5358501310220674E+01
Pb    9.6817590546964198E+01   -2.2444350152385516E+02    1.4687809863857956E+01
Pb    1.5696180841581535E+01   -1.2721143598518488E+02   -1.0252233312549127E+02
Pb   -4.7958959008843991E+01   -2.4738898269787079E+01    2.2050647973631946E+01
Pb    6.3078068848693725E+01   -8.2871310667294878E+01    5.4905996130686407E+00
Pb    5.9133699478614652E+01    6.2391302099582823E+01   -5.4660151922023232E+01
Pb    2.7927705615537842E+01   -7.8484948040048366E+00    1.8398403752094172E+00
Pb   -1.0061885001395682E+02    1.2442122001209007E+02    8.9021038047914189E+01
Pb    2.9907806413067095E+02   -2.7278506622010502E+02   -1.3296586867691087E+02
Pb    1.9064220723458629E+02   -2.5556460557400288E+02   -4.7072980854292567E+01
Pb    2.0956286902375822E+02   -2.4991893733812634E+02   -3.2177053497237686E+01
Pb    2.7954873145631433E+02   -1.1917491438694123E+02   -1.1256685239814503E+02
Pb    1.6770002067039465E+02   -6.1279670719434328E+01   -3.7631787935147827E+01
Pb    9.6168917160743689E+01   -4.8998335361200688E+01    3.2259541606044515E+01
Pb    1.4051871935175319E+02   -5.7486506602203569E+01   -6.6910467841054270E+01
Pb    1.4793188184366889E+02   -3.1893570008431105E+01   -3.9301077495311297E+01
Pb    1.0192557508173531E+01    1.0570745095146303E+02    8.1133750851135588E+01
Cs   -2.1320597201927850E+01   -2.0332879007983956E+02   -1.0645506005442792E+02
Cs   -5.7555858996295598E+01   -8.2186328275701612E+01   -1.1335477271867649E+01
Cs   -1.5015059244660702E+02   -1.1783506382452847E+01    7.1382820319986621E+01
Cs   -1.5408703323812155E+01    2.5835354352337284E+01   -6.9521466964434410E+01
Cs   -1.2861731084879708E+01   -5.2881495005913102E+01   -6.1543732155522306E+01
Cs   -1.6899929053624464E+02   -1.3762667272330209E+01    5.4494631513019719E+01
Cs   -9.2471298450650565E+01    3.8839948781387342E+01   -3.4476776981152746E+01
Cs   -1.4971068107425782E+02    1.1579055049482974E+02    3.0410213745744041E+00
Cs   -2.4864532567854491E+02    1.7917380506507544E+02    4.6742391139687506E+01
Cs    2.1819656782721017E+02   -2.7412531710774863E+02   -1.5684859955078718E+02
Cs   -2.5087265065596633E+00   -1.6450562627130100E+02   -5.0662436975812199E+01
Cs    1.7870053508103655E+02   -1.7066734159733431E+02   -6.4911580035413749E+01
Cs    7.2747515856420605E+01   -3.4695657194569904E+01   -8.2034645665654168E+01
Cs   -1.7292463653575858E+01   -6.3788726387430721E+00   -3.2493136881887592E+00
Cs   -1.9768361920050367E+01    1.7195281149559637E+01    6.7947856782840248E+01
Cs    2.0459861736714338E+01    7.1941778815227593E+01   -7.7599670362927853E+01
Cs   -2.3142250652131668E+01    1.2484510732048277E+02    1.7100167786797506E+01
Cs   -1.1718460394475534E+02    1.0748645336262229E+02    5.6885632398469518E+01
Cs    2.8702111590156079E+02   -2.6797748938690910E+02   -2.0447550260718373E+02
Cs    1.8456140327375348E+02   -2.1747684297941836E+02   -1.2812611010387741E+02
Cs    2.4213464035270488E+02   -3.0403481130984790E+02   -1.0991971930761898E+02
Cs    1.8258442342107591E+02   -6.6710143763247800E+01   -9.1606699134171592E+01
Cs    2.3732677791216372E+02   -9.6213662961506287E+01   -6.5820689079276477E+01
Cs    1.5834646948461065E+02   -7.8349952509741669E+01   -5.0989699315757818E+01
Cs    1.4401516781325574E+02    3.8094151105916787E+01    9.5446839382348714E-01
Cs    1.7807592850421290E+02    4.0047186707440510E+01    5.5863716295058921E+01
Cs    2.4661350571951335E+01    1.1340081278857235E+02    4.3788089303371855E+01
Cs    1.8864967235834378E+01   -7.4248390181464217E+01   -8.1815336886770467E+01
Cs    7.8264126362545767E+01   -5.9303058542321942E+01   -3.1728007888362342E+01
Cs   -6.3934742923488137E+01   -1.0127679204980828E+02    7.5369005233160863E+01
Cs   -1.3834583546667844E+02    1.3301980918446446E+01   -4.0184491781895186E+00
Cs   -1.2875094372039271E+02    1.3635908683901039E+02    7.9711636067315837E+01
Cs   -1.3369174721008201E+02    2.7048737140626979E+01    6.8625075104977526E+01
Cs   -1.3185773752194953E+02    2.0178589381547641E+02    1.7859928879532923E+01
Cs   -1.1490279088206948E+02    1.8984645929873525E+02    1.0500206720758504E+02
Cs   -1.6898298568235720E+02    2.8863292082820487E+02    1.3629112215055528E+02
Cs    2.5202060340176843E+02   -1.1647019485473865E+02   -1.0567036796003879E+02
Cs    1.5567578114149242E+02   -6.8243106256230561E+01   -4.4977732072751152E+01
Cs    8.3758455705748844E+01   -1.1549973171520942E+02   -1.9997179014217387E+01
Cs    8.1879348826554889E+01    4.9973240050008705E+01   -5.3629857902886123E+01
Cs    9.3479405167257241E+01   -4.7918672435590345E+01   -3.1687822838554418E+01
Cs   -2.4443572936347323E+01    8.5691323359307560E+01    5.0084928606705269E+01
Cs    5.4308260692016197E-01    1.4781030010753079E+02   -3.1657722658466604E+01
Cs    5.6547716823175087E+01    1.5580313674388873E+02   -4.1701993114792920E+01
Cs   -1.3046337408422463E+01    2.2046529733378284E+02    5.7034855096195990E+01
Cs    2.9955901152718474E+02   -1.1321677145389584E+02   -1.0278975791846408E+02
Cs    3.9263481755541977E+02   -2.0074180188561232E+02   -1.4772206759376073E+02
Cs    1.6838153809045423E+02   -1.0385171583998134E+02    1.5498092899924577E+01
Cs    2.8050612833989993E+02   -1.3163863878132079E+02   -1.0299865777304325E+02
Cs    2.5480507857385683E+02   -7.5135544699297810E+01   -1.1259838798655446E+02
Cs    3.2089512705042284E+02   -7.5274888257507484E+01   -1.5907577450302890E+01
Cs    1.8136089243908012E+02    7.0396040326053708E+01   -5.6377816745116156E+01
Cs    1.9257438991038839E+02    1.1903569638844050E+02   -1.8958118443912110E+01
Cs    1.8768034623261633E+02    9.7576313999642892E+01    2.7704182552140157E+01
Cs   -4.2047114142919860E+01   -9.4263825400318993E+01   -9.1568362391878381E+01
Cs   -1.5018710631232844E+02   -2.2675415367405151E+01   -4.6471615000632616E+00
Cs   -1.9641882344103581E+02    5.9871582301118691E+00    1.1207139189476199E+02
Cs   -6.6560044667148432E+01    5.5270511155387446E+01    2.9926541221225698E+00
Cs   -2.1888121920178273E+02    5.8621303708727261E+01    1.1915330949568256E+01
Cs   -1.5701892234587260E+02    2.8140247985999558E+00    1.0273766862781569E+02
Cs   -1.9204943362919423E+02    2.3959914114018738E+02    4.0039332532240330E+01
Cs   -2.4593119534856723E+02    2.1695917432980900E+02    1.0223408664386149E+02
Cs   -4.5102949987442247E+02    2.2862138865306920E+02    1.8036070398032518E+02
Cs    1.0370204413511308E+02   -7.5200656214892504E+01   -1.3005578740040036E+02
Cs    2.9242181694721272E+00   -6.8669727537963510E+01    4.6526383077647742E+00
Cs    4.9015236300079295E+01   -3.2428669845410887E+01    2.0809880867732343E+01
Cs    1.9026431584883323E+01   -1.0889473131287021E+01   -4.4856183043315141E+01
Cs   -9.9784862423601195E-01    2.9179676093112484E+01    1.4569399055459940E+01
Cs   -9.1188604735509529E+01    6.5377234495144322E+01    7.2091367097425746E+01
Cs   -7.3227319696657645E+01    1.4339916850492187E+02    4.0037472385281220E+01
Cs   -4.6789711198949583E+01    1.4212016988237895E+02    5.8708587659375723E+01
Cs   -1.8041634266995803E+02    1.7088294263216582E+02    1.7122112193696668E+02
Cs    2.1512495507937084E+02   -1.6592263197475680E+02   -1.0928322040321420E+02
Cs    2.5134864272077800E+02   -1.3070556004276085E+02   -4.4702985602743226E+01
Cs    2.1414425371166638E+02   -1.0970973991119467E+02    3.3149752909455885E+00
Cs    2.4546807800031837E+02   -5.1049444147403520E+01   -4.6568733718031410E+01
Cs    2.2997344788801747E+01    1.8477446828955642E+01    3.4793903038655586E+01
Cs    2.5193143244670775E+01    7.6729598521651823E+01    7.2005786829926990E+01
Cs    1.9092200255342448E+02    1.1666167660677705E+02   -2.4302476184423362E+01
Cs   -8.1884280953164321E+00    1.6213171437270029E+02    4.4092116330997555E+01
Cs    1.8712073189164723E+01    1.7712969092798920E+02    8.0990552557000811E+01
Cs   -1.5976079892734552E+02   -1.1627948111520055E+02   -4.2747441044509735E+01
Cs   -9.2582565606092601E+01   -1.5530591375962240E+02    6.9705184065523525E+01
Cs   -2.8062274549126749E+02    9.3973673789494256E+00    1.1128798985791406E+02
Cs   -2.6381623615808542E+02    9.7663905972601786E+00   -3.8159327757410175E+01
Cs   -2.4813086885146805E+02    3.8637448513921903E+01    6.9382172432344191E+01
Cs   -2.0816960934816657E+02    6.8036801858201414E+00    8.7025351732020169E+01
Cs   -2.3873011526850709E+02    2.0953813621083674E+02    6.1910155497440542E+01
Cs   -1.6417355515347927E+02    2.3495639974313659E+02    5.6563905872152226E+01
Cs   -2.3376153868693083E+02    1.5978139206901977E+02    1.4880318495483590E+02
Cs    1.8921900679114110E+01   -1.3553737097318285E+02   -6.6200325564413944E+01
Cs   -5.8923084725521306E+01   -1.4771007761044251E+02   -3.1373963350510223E+01
Cs    4.1929703369228577E+01   -1.6938306684401718E+02   -3.0026781794319852E+01
Cs    2.3442661570704942E+01   -4.5714077705684531E+01   -2.0419109779381539E+01
Cs   -8.1972892491039232E+01   -4.0278272307011854E+01    2.7719072444461097E+00
Cs   -7.2299158816217798E+01   -5.7579874035163904E+01   -2.1959276517797433E+00
Cs    2.5272959288892100E+01    5.8416798750183624E+01   -4.7453796973371411E+01
Cs   -3.4682331237192038E+01    7.4705020206987612E+01   -2.1107460430247830E+01
Cs   -1.6705220687225579E+02    2.2507602650686712E+02    9.6216603946380545E+01
Cs    1.2964929216276570E+02   -2.3503012459646391E+02   -1.0410782796189166E+02
Cs    1.8392310617027653E+02   -1.6217061385209334E+02   -8.0527612463417569E+01
Cs    1.6636199183680603E+02   -1.4301753391843121E+02   -2.2361337304262477E+01
Cs    1.2117837857505093E+02   -8.7790436377306406E+01   -1.1963002742970799E+02
Cs    4.2758008067369353E+01   -5.3584885017954846E+01   -3.0700374899774641E+01
Cs    6.8509297506174072E+00    2.0449116642010654E+01    1.7723257193404880E+01
Cs    1.1415398549000081E+02    3.9316192030800885E+01   -7.2800552816908237E+01
Cs    6.3723293864097847E+01    4.1352157000414543E+01   -9.9051284293988022E+00
Cs   -3.9050630193547448E+01    1.8120966014853485E+02    1.0747890810895494E+02
Br   -1.3057636813721007E+02   -1.3477405579978574E+02   -4.9128781465794447E+01
Br   -2.3768899188567849E+02    7.8548581699737561E+00    5.4487517028863067E+01
Br   -2.4475333044265847E+02   -2.0839497861510953E+01    7.5726078860600580E+01
Br   -1.5565731515246298E+02    2.3638060090851523E-03   -3.6548155498827199E+01
Br   -2.2314721656283871E+02    6.1566217329208506E+01    2.6138577957375102E+01
Br   -1.9340728657537653E+02    7.2114379012374927E+00    3.6166352808668925E+01
Br   -1.2672003171867713E+02    1.3121303094563723E+02    7.3850564619032628E+00
Br   -2.6231474441192279E+02    2.4961412504675195E+02    8.9149533993687470E+01
Br   -2.9949137114346871E+02    2.4640011068138605E+02    1.2947757901468239E+02
Br   -2.9941465176446712E+01   -9.6314892765436539E+01   -8.7291622286223543E+01
Br   -2.9711504453709750E+01   -8.5857776363598759E+01   -3.6721310554735638E+01
Br   -7.9970551392955201E+01   -6.8759309918256875E+01    4.7512302933809963E-01
Br    1.0044553668739157E+02   -8.1403382402387606E+01   -1.2550780129120628E+02
Br   -9.8105780659707555E+00    1.6191708936345385E+01    8.9325716849432979E+00
Br   -2.7917034288372861E+01    1.9536730498406701E+01    4.6724781205912848E+01
Br   -9.3223855913870082E+01    1.0651295950942604E+02   -6.6598356330134123E-01
Br    8.7695840971523520E+00    1.4879457947357116E+02    3.2082631555611506E+01
Br   -1.8080348551294975E+02    2.3413519130949308E+02    9.8087864590379354E+01
Br    2.5875101328780107E+02   -1.1456443896760943E+02   -1.1112820558987903E+02
Br    1.8219085519523048E+02   -1.6917316632817233E+02   -5.1517672279779873E+01
Br    1.7790012559733225E+02   -1.4632310449360654E+02   -3.8541369654615430E+01
Br    2.3337783205500455E+02   -5.1456574940591103E+01   -7.0813175589888289E+01
Br    1.7456937564918985E+02   -4.5084290790216983E+01   -8.7600216456920307E+01
Br    1.6836484044219112E+01   -1.5168898260924886E+00    1.9962178271816402E+01
Br    7.3897827775940982E+01    1.0889028063594601E+02   -4.5569129384599741E+01
Br   -7.9793338469751918E+00    1.4433003261265807E+02   -1.1741280538005828E+01
Br   -1.5985513827989945E+02    2.0288144667641967E+02    1.2384169649617510E+02
Br   -1.1761978023554721E+02   -1.6805476112783924E+02   -1.7018951690406912E+01
Br   -8.2266940174516748E+01   -6.1469906675670920E+01   -8.0660550715478259E+00
Br   -2.9905768062279049E+02    2.0009506705047642E+01    8.7550837599733853E+01
Br   -2.8701765563798398E+02    4.7865176998762173E+01    8.9626156550294084E+01
Br   -3.1011459242592775E+02    4.0975515963620566E+01    4.3318197068966882E+01
Br   -2.2630399945470757E+02   -2.9813240332040571E+01    7.4829281010022100E+01
Br   -2.5557018271336219E+02    1.9974597951745375E+02    5.0509459405068313E+01
Br   -2.6896298766814590E+02    1.8840586713603415E+02    1.1538268162586469E+02
Br   -4.7769382782194555E+02    2.1482045351916238E+02    1.9688377362456691E+02
Br    9.2205256853312374E+00   -1.4244406267608920E+02   -7.8208229051520206E+01
Br    2.1692660604177522E+02   -1.6387979422116754E+02   -7.3961932994681689E+01
Br   -7.5018796974276654E+01   -9.5692738918152230E+01    8.0076167549000118E+01
Br    2.6126878359890224E+01   -4.4078027328406105E-01   -8.0320699478905183E+01
Br   -2.0891669445386108E+02    3.4241952588178115E+01    5.8422526014552247E+01
Br   -7.7310597808848414E+01    3.7811906646946618E+01    4.3053418582645790E+01
Br   -1.7029607492604009E+02    2.2483690026984061E+02    2.9916657336742645E+01
Br    1.1516501171594324E+01    1.4519894756964857E+02    4.0614551948855180E+01
Br   -1.7683395464274696E+02    1.4548534031737543E+02    1.5538202548107722E+02
Br    1.9646097750855756E+02   -1.7293202405508382E+02   -1.0273872181895821E+02
Br    2.6867139864375935E+02   -1.6143787322523227E+02   -5.2613956272734221E+01
Br    1.2895216411984697E+02   -1.5231106048269817E+02   -5.2941749994633538E+00
Br    1.2478717665407900E+02   -2.7064785667544950E+01   -6.7906972096182272E+01
Br    4.7429179602436406E+01   -3.9094153783951050E+01   -4.5987608415097831E+01
Br    9.0694109490792680E+00    4.0225268316119099E+01    1.3941654779975269E+02