 # Version information for this restart file 
 # current date 2020-12-23 15:01:54.361
 # current working dir /Users/bvanbeek/Downloads/MM_MD_workdir/md
 # Program compiled at                             Fri Apr 19 11:24:34 CEST 2019
 # Program compiled on                                             192.168.1.124
 # Program compiled for                           Darwin-IntelMacintosh-gfortran
 # Source code revision number                                         svn:18464
 &GLOBAL
   PRINT_LEVEL  LOW
   PROJECT_NAME cp2k
   RUN_TYPE  MD
 &END GLOBAL
 &MOTION
   &MD
     ENSEMBLE  NPT_F
     STEPS  10000
     TIMESTEP     2.4999999999999996E+00
     STEP_START_VAL  8000
     TIME_START_VAL     1.9999999999997544E+04
     ECONS_START_VAL    -5.5495911227455137E+00
     TEMPERATURE     3.0000000000000000E+02
     &BAROSTAT
       PRESSURE     1.0100000000000000E+00
       TIMECON     4.9999999999999994E+02
       &VELOCITY
            -2.6657129171618251E-07    1.7560102952784021E-06    4.9253461230804844E-07    1.7560102952784034E-06 \
            -1.6185162151751269E-06   -2.3918141254195676E-06    4.9253461230804834E-07   -2.3918141254195748E-06   -2.0458832730071836E-06
       &END VELOCITY
       &MASS
             2.1920353963970435E+08    2.1920353963970435E+08    2.1920353963970435E+08    2.1920353963970435E+08 \
             2.1920353963970435E+08    2.1920353963970435E+08    2.1920353963970435E+08    2.1920353963970435E+08    2.1920353963970435E+08
       &END MASS
       &THERMOSTAT
         TYPE  CSVR
         &CSVR
           TIMECON     9.6755373060191392E+00
           &THERMOSTAT_ENERGY
                 3.9256105536383024E-01
           &END THERMOSTAT_ENERGY
           &RNG_INIT
Wiener process for Thermostat # 1        1 F T F  -6.9023580616038893E-01         785679962.0        1114018626.0        2828810726.0        3837893470.0           6557058.0        2679157326.0             12345.0             12345.0             12345.0             12345.0             12345.0             12345.0             12345.0             12345.0             12345.0             12345.0             12345.0             12345.0
           &END RNG_INIT
         &END CSVR
       &END THERMOSTAT
     &END BAROSTAT
     &THERMOSTAT
       TYPE  CSVR
       &CSVR
         TIMECON     4.9999999999999994E+02
         &THERMOSTAT_ENERGY
              -3.6417760369263377E+00
         &END THERMOSTAT_ENERGY
         &RNG_INIT
Wiener process for Thermostat # 1        1 F T F   9.2916860759450837E-01         852262962.0        4276186479.0         323971816.0        3058736847.0        1298493323.0        3486920180.0             12345.0             12345.0             12345.0             12345.0             12345.0             12345.0             12345.0             12345.0             12345.0             12345.0             12345.0             12345.0
         &END RNG_INIT
       &END CSVR
       &PRINT
         &TEMPERATURE  ON
           FILENAME 
           &EACH
             MD  10
           &END EACH
         &END TEMPERATURE
       &END PRINT
     &END THERMOSTAT
     &AVERAGES  T
       &RESTART_AVERAGES
         ITIMES_START  1
         AVECPU     3.1353700374951519E-02
         AVEHUGONIOT     0.0000000000000000E+00
         AVETEMP_BARO     9.1824945770677459E+02
         AVEPOT    -4.3900357439911550E+00
         AVEKIN     6.7332458529632166E-01
         AVETEMP     2.6297938632818756E+02
         AVEKIN_QM     0.0000000000000000E+00
         AVETEMP_QM     0.0000000000000000E+00
         AVEVOL     3.3062964423172228E+07
         AVECELL_A     2.7018347993539777E+02
         AVECELL_B     2.8890292718289123E+02
         AVECELL_C     1.4887377321037812E+02
         AVEALPHA     7.5358454072206769E+01
         AVEBETA     1.0692382732074053E+02
         AVEGAMMA     1.0356359236619626E+02
         AVE_ECONS    -1.4670654135177257E+00
         AVE_PRESS     3.3127107309009967E+00
         AVE_PXX     2.8322649847942221E+00
       &END RESTART_AVERAGES
     &END AVERAGES
   &END MD
   &PRINT
     &TRAJECTORY  ON
       &EACH
         MD  10
       &END EACH
     &END TRAJECTORY
     &CELL  ON
       FILENAME 
       &EACH
         MD  10
       &END EACH
     &END CELL
     &FORCES  ON
       FILENAME 
       &EACH
         MD  10
       &END EACH
     &END FORCES
   &END PRINT
 &END MOTION
 &FORCE_EVAL
   METHOD  FIST
   STRESS_TENSOR  ANALYTICAL
   &MM
     &FORCEFIELD
       VDW_SCALE14     1.0000000000000000E+00
       EI_SCALE14     1.0000000000000000E+00
       SHIFT_CUTOFF  T
       DO_NONBONDED  T
       IGNORE_MISSING_CRITICAL_PARAMS  T
       &SPLINE
         R0_NB     1.0000000000000001E-01
       &END SPLINE
       &NONBONDED
         &LENNARD-JONES
           ATOMS Cs Cs
           EPSILON     2.2644852172126850E+01
           SIGMA     5.8500000000000005E+00
         &END LENNARD-JONES
         &LENNARD-JONES
           ATOMS Cs Pb
           EPSILON     8.6920055954630953E+01
           SIGMA     5.1000000000000005E+00
         &END LENNARD-JONES
         &LENNARD-JONES
           ATOMS Br Pb
           EPSILON     2.0528187276773045E+02
           SIGMA     2.9000000000000004E+00
         &END LENNARD-JONES
         &LENNARD-JONES
           ATOMS Br Cs
           EPSILON     5.3481070753900497E+01
           SIGMA     3.8500000000000005E+00
         &END LENNARD-JONES
         &LENNARD-JONES
           ATOMS Br Br
           EPSILON     1.2630795322675199E+02
           SIGMA     4.2599999999999998E+00
         &END LENNARD-JONES
         &LENNARD-JONES
           ATOMS Pb Pb
           EPSILON     3.3363415533600221E+02
           SIGMA     5.9800000000000004E+00
         &END LENNARD-JONES
       &END NONBONDED
       &CHARGE
         ATOM Cs
         CHARGE     2.0000000000000001E-01
       &END CHARGE
       &CHARGE
         ATOM Pb
         CHARGE     4.0000000000000002E-01
       &END CHARGE
       &CHARGE
         ATOM Br
         CHARGE    -2.0000000000000001E-01
       &END CHARGE
     &END FORCEFIELD
     &POISSON
       PERIODIC  XYZ
       &EWALD
         EWALD_TYPE  SPME
         GMAX  22
         O_SPLINE  4
       &END EWALD
     &END POISSON
     &PRINT
       &FF_INFO  LOW
         SPLINE_INFO  F
         SPLINE_DATA  F
       &END FF_INFO
     &END PRINT
   &END MM
   &SUBSYS
     &CELL
       A     4.0995635127878569E+02   -1.4076461549896754E+02   -1.0421133862362477E+02
       B    -1.6270506973398042E+02    4.4197889137009031E+02    9.3780190962286738E+01
       C    -1.0379880628471480E+02    7.9910421192416649E+01    1.6695065843195897E+02
       PERIODIC  XYZ
       MULTIPLE_UNIT_CELL  1 1 1
     &END CELL
     &COORD
Br   -2.0535495383626230E+02    2.2256197537154216E+02    1.0036434540294115E+02
Br   -2.4490047053725669E+02    2.5496852018628007E+02    1.5279965422759378E+02
Br    4.4625025103155899E+01   -1.5355242694391094E+02   -5.3307058260393127E+01
Br   -6.1719238849332214E+01   -4.1271267639846855E+01    1.8142390966916860E+01
Br    7.2312344443986774E+01   -1.0948230807172088E+02   -8.1169053880013848E+00
Br    3.7226446669314100E+01   -1.1773957163596284E+01   -5.9738970223400578E+01
Br   -1.0643252130225571E+00    4.6434357456488602E+00   -1.8148390709773953E+01
Br   -1.4114597965581092E+01    1.1796975612863456E+01    4.1878416711538627E+01
Br   -6.3333104952770206E+01    1.4148610679058871E+02    3.6688402920143425E+01
Br   -6.9583751941657738E+01    1.6927513867753436E+02    6.6626524693033090E+01
Br   -8.9321426488056545E+01    1.7107559807941595E+02    8.5765320191803596E+01
Br    1.7297265467695391E+02   -1.8035763680454070E+02   -1.1355109726900420E+02
Br    1.2920529620793181E+02   -7.5227833105272310E+01   -2.6821550767235358E+01
Br    1.7652669778079206E+02   -1.3607898280037401E+02   -2.4147413711090486E+01
Br    1.3727800612198919E+02   -7.0130115108483253E+01   -4.7955788792292964E+01
Br    1.2387068394931777E+02   -2.9533367556034133E+01   -2.9504530338292220E+01
Br    5.8659239185652218E+01    2.0427462879843674E+01   -9.8807219345080934E+00
Br    7.3439935739035164E+01    1.6829206175674688E+02   -1.1483237828301665E+01
Br    1.4390619894674418E+02    1.4964580697719995E+02   -2.3499067487628523E+01
Br    2.0143473347252232E+01    1.1608969800661541E+02    3.3570150747009734E+01
Pb   -1.5461174171934582E+02   -7.3235795166853919E+01   -4.2509153172489263E+01
Pb   -8.9119379173936736E+01   -1.1495323651539424E+02    1.7387926582839281E+01
Pb   -1.9282639834673216E+02   -2.9585011915390126E+01    7.0894690790029884E+01
Pb   -5.2670808052784452E+01   -1.2857075378007491E+02   -1.0174581501993366E+02
Pb   -2.1402444230863054E+02    7.8505974008601683E+01    3.1333635705834133E+01
Pb   -1.4815817642533753E+02    2.4833729908535776E+01    4.2899788987996082E+01
Pb   -2.7475323384028582E+02    1.4294941787422360E+02    5.8609254225317491E+00
Pb   -2.2414621517723700E+02    2.1712747845086588E+02    4.7674460349541292E+01
Pb   -2.1187616508007841E+02    1.9794635212385714E+02    9.1638913528143647E+01
Pb    4.0021671090728816E+01   -1.6356824350143569E+02   -8.0290680027204971E+01
Pb   -5.8444138375594941E+00   -1.2587893948998824E+02   -2.1743121857514815E+01
Pb   -6.7743952298507196E+01   -1.0560743566940738E+02    1.6258660876547644E+01
Pb    4.1033164792920296E+01   -4.3507161605747733E+01   -1.1233897361753958E+02
Pb   -4.3915575322061422E+01    2.9861007243452232E+01   -1.1283449126098974E+01
Pb   -1.4084945136027554E+02    5.2627300763546344E+01    3.8829834234337810E+01
Pb   -8.3434851612709537E+01    1.1991683956681987E+02   -7.8853064997231739E+00
Pb   -1.1242347261349859E+02    2.5740389329737349E+02    4.1981609665900208E+01
Pb   -1.9541550377127487E+02    2.4403421738434022E+02    1.1622400447215549E+02
Pb    1.8329744805269135E+02   -2.6288439448837516E+02   -1.6162550392037838E+02
Pb    1.5026937955121232E+02   -1.9382255166793587E+02   -9.0189286786336496E+01
Pb    1.6311229646182449E+02   -1.6317751187899083E+02   -3.9004977682364064E+01
Pb    1.0986307126783380E+02   -5.3150187072797685E+01   -4.5297334478040440E+01
Pb    1.3642006565682300E+02   -6.3756062331632116E+01   -4.8295765328205214E+01
Pb   -9.3365621166768147E+00    1.5084931682504207E+01    1.0437696818196901E+01
Pb    6.3795822747704868E+01    1.2664848102926520E+02   -6.0902903376075550E+01
Pb    1.3431880488982248E+01    1.4181355544632177E+02   -2.7873165723979945E+01
Pb    8.2110894038768194E+00    1.1905306351714725E+02    2.6429231922856086E+01
Pb   -1.2283043650870955E+02   -1.1479031822091497E+02   -3.6115692918717663E+01
Pb   -8.1610060093283096E+01   -1.2032627099295715E+02    4.7608511453936968E+00
Pb   -8.7038343190520152E+01   -6.4503416882590798E+01    7.2853607765827093E+01
Pb   -1.2734308827996092E+02   -5.8808878837936840E-01   -3.4086089899081124E+01
Pb   -1.1886907350654378E+02    3.6402011650353721E+01    2.5219692885958498E+01
Pb   -9.6391404270694252E+01   -2.7498841653949082E+01    5.4708378722046767E+01
Pb   -1.3395481321678938E+02    1.5958975618643515E+02   -1.1152754189293034E+01
Pb   -2.0377442912890285E+02    2.2096663859300844E+02    9.8790206047848685E+01
Pb   -2.3743653485491791E+02    2.3407495106125688E+02    1.0644255185425341E+02
Pb    5.1238625242160644E+01   -1.5923253532195730E+02   -5.8468667062452219E+01
Pb    1.6705376431197490E+02   -1.7253272485312954E+02   -5.9784370808585521E+01
Pb    8.5037839619037825E+01   -1.4547977166063052E+02    6.0664862093117415E+00
Pb    2.1191146577983460E+01    2.1109356881297719E-01   -7.3709570353547264E+01
Pb    2.0854949673072589E+00    1.1188131551172905E+01   -1.3694424612605856E+01
Pb   -1.3383473576868344E+01    1.4688875184003065E+01    4.2320949347222459E+01
Pb   -6.6264701386374654E+01    1.4428066808662658E+02    3.1631041061888638E+01
Pb    2.7794679532281861E+00    1.5126477818501300E+02    3.3863686818397731E+01
Pb   -8.7108513888435084E+01    1.6761825201270528E+02    8.5503994013280419E+01
Pb    1.6315127524720387E+02   -1.9068719574592339E+02   -1.0087825492726766E+02
Pb    2.0669165656661914E+02   -1.6855379920834883E+02   -4.0393733511374300E+01
Pb    1.6661535297723483E+02   -1.5276973807064627E+02   -2.4067361271107732E+01
Pb    1.6905764796457532E+02   -7.9742870374114986E+01   -7.4658408176517042E+01
Pb    1.7018282632580713E+02   -7.3054474323405444E+01   -5.1923576897003699E+01
Pb    2.0219352886937585E+01    2.5991677794152497E+00    3.0290453453793880E+01
Pb    6.4388467919644739E+01    1.2020056297006040E+02   -4.5865383957770611E+01
Pb    1.7676962004590217E+02    6.3763034739398094E+01   -3.3413292847502333E+01
Pb    3.1720657674625294E+00    1.2594505303911870E+02    3.0454640645971175E+01
Pb   -8.5209057935317347E+01   -1.8845802836550158E+02   -8.9758622297979443E+01
Pb   -1.1674750181603002E+02   -1.2247059505168443E+02    6.1669579608161778E+00
Pb   -7.5916215459452943E+01   -2.1391045412068340E+02    3.1656433029860576E+01
Pb   -1.2794496316861517E+02   -6.5821084266760096E+01   -7.7184370884169127E+01
Pb   -2.0538235097349553E+02    2.4078891195695366E+01    2.1751869578819875E+01
Pb   -1.7384902396482906E+02   -1.9908449394302206E+01    4.3785712937134505E+01
Pb   -2.9072499707103657E+02    1.1898791418160845E+02    1.1069760419566666E+01
Pb   -2.3991704573715600E+02    1.1528926269085828E+02    7.9929172445948453E+01
Pb   -2.3343534730470827E+02    1.5432125032737662E+02    7.4233848611700637E+01
Pb    4.7208658970520752E+01   -2.3741877122303421E+02   -9.8937166928130281E+01
Pb    4.8150978240136366E+00   -1.6415522114515602E+02   -6.5687563111971173E+01
Pb   -4.4898460839089772E+01   -1.4900430855938905E+02    2.4737595304868107E+00
Pb   -2.0968964957009934E+01   -1.0054385812282615E+02   -8.1893488938227591E+01
Pb   -4.7040048678010301E+01   -5.1220001956978969E+01   -1.6089749570453961E+01
Pb   -5.9110982625997792E+01   -4.2144587403335720E+01    1.1260063649372979E+01
Pb   -3.6130995562304172E+01    6.5787047087463563E+01   -3.8500690706808314E+01
Pb   -3.9674592603270106E+01    3.5171087855555889E+01   -1.4479836951566313E+01
Pb   -1.1801338183322677E+02    1.6235371163031795E+02    1.0383120148885740E+02
Pb    2.0437389201611856E+02   -3.0600436541743886E+02   -1.5915951513840827E+02
Pb    5.2346913246894097E+01   -2.1056020465296652E+02   -5.8767440326012931E+01
Pb    1.5906720807586316E+02   -1.8796803623430668E+02   -4.1077698114239951E+01
Pb    1.1156025468464404E+02   -8.0290911674680345E+01   -1.3645036405628460E+02
Pb    5.9024492031762200E+01   -5.2582363266482602E+01   -3.3858743519053853E+01
Pb    1.2080889439539045E+02   -9.4584426861383875E+01   -2.7040237031842878E+01
Pb    1.3052556569670406E+02   -4.1013434174007513E+00   -8.3609765973216639E+01
Pb    8.3367665257331240E+01    1.2237370352734551E+01   -1.6300180255088915E+01
Pb    5.6408092159516947E+01    1.1238599378829491E+01   -1.0693731055836997E+01
Pb   -9.5793915208799675E+01   -1.1271984052546641E+02   -5.9832449172440910E+01
Pb   -9.7358405344721426E+00   -1.8064855788697028E+02   -3.3434524031913533E+01
Pb   -8.4797743026914489E+01   -1.8794396846022076E+02    6.5095040417211877E+01
Pb   -5.1793975560094687E+01   -8.7039125974870373E+01   -7.6083763818720797E+01
Pb   -1.0197492499885290E+02   -5.5443273876473299E+01   -6.9913388342008540E+00
Pb   -1.4780099660429622E+02   -3.1170589382524543E+01    7.7762814505408230E+01
Pb   -3.9802179787202142E+01    7.7895607270252867E+01   -1.6624513698170510E+01
Pb   -1.4962448658559961E+02    9.6405226203839391E+01    5.3381470301104123E+01
Pb   -1.6819353677342403E+02    1.4288460897166595E+02    1.3241508746959823E+02
Pb    3.0976331229086480E+01   -1.7145672348135005E+02   -8.0241395877802844E+01
Pb    4.2728368673775734E+01   -2.1891229524150924E+02   -5.1237337747426622E+01
Pb    7.7311257375348248E+01   -2.3884395940428547E+02    1.7205374592867749E+01
Pb    1.4168011582984633E+01   -1.2956665898374447E+02   -9.0972568240524680E+01
Pb   -2.9252957160205728E+01   -2.8157121381471214E+01    1.9030589592925523E+01
Pb    4.9362594878609499E+01   -9.0976960029673961E+01    8.8095948220367699E+00
Pb    4.2440096811717986E+01    6.6838858927849941E+01   -5.3341339747289595E+01
Pb    2.6992069351593106E+01   -2.6803787075923129E+00   -1.4963971605632944E+00
Pb   -8.0950353978704669E+01    1.2655886431805506E+02    7.8144389433130982E+01
Pb    2.3794690268352232E+02   -2.8825319540168175E+02   -1.1688957278352129E+02
Pb    1.5395356360187097E+02   -2.6917628292254437E+02   -3.4797044726218161E+01
Pb    1.6921294509518742E+02   -2.6075881542536416E+02   -2.4277988824404080E+01
Pb    2.2045449323326207E+02   -1.2467024460706290E+02   -1.0000595166308185E+02
Pb    1.3636831373701989E+02   -6.6823808068106771E+01   -3.5382710152594377E+01
Pb    8.1458840222409137E+01   -5.1962570047739170E+01    3.4910891471620381E+01
Pb    1.2226907987357747E+02   -5.6762602488907163E+01   -5.8158337281546345E+01
Pb    1.1761055325056883E+02   -3.1099989489647946E+01   -3.2754115224391107E+01
Pb    8.2338857368967311E+00    1.1329812224717746E+02    7.4947273304245201E+01
Cs   -1.8157497471248181E+01   -2.1976954297866217E+02   -9.6498995858525120E+01
Cs   -4.6190427127928309E+01   -9.4657739340536850E+01   -1.2365706197976403E+01
Cs   -1.2217500562936149E+02   -2.8162972599855312E+01    7.5982768179474789E+01
Cs   -1.3221473917604637E+01    1.7372256275231393E+01   -6.4827957498725794E+01
Cs   -1.3389479582141954E+01   -5.5339767720381559E+01   -5.2313917260545196E+01
Cs   -1.3124278575964453E+02   -1.5262768119347768E+01    5.1552642156252780E+01
Cs   -7.9584325446403767E+01    4.3802443719884089E+01   -3.5568470086758047E+01
Cs   -1.1787491095804126E+02    1.2293547663488962E+02    1.2700721713605654E+00
Cs   -1.9857921039310949E+02    1.8281179506366269E+02    4.2125681122493219E+01
Cs    1.6991781181332678E+02   -2.9071362176137512E+02   -1.4165145927769643E+02
Cs    2.8565689781719756E+00   -1.7011900040112661E+02   -4.1009621589827887E+01
Cs    1.3739720213967954E+02   -1.8399877176152984E+02   -5.1261939086238542E+01
Cs    5.9120350088557068E+01   -3.7397743448799524E+01   -7.9341436076855061E+01
Cs   -1.6244270385150056E+01    2.0744523883043962E+00   -3.9848039781977622E+00
Cs   -2.3021908650337107E+01    1.7036636162992679E+01    5.8235848467855334E+01
Cs    1.2829321738014025E+01    7.8042144518073115E+01   -7.4651728514355725E+01
Cs   -1.7299276636132873E+01    1.3264782237701843E+02    6.9932199077179780E+00
Cs   -8.7935308845508558E+01    1.1715178626860046E+02    4.8565595234194156E+01
Cs    2.3589777011975318E+02   -2.8220383655549756E+02   -1.8090577055101198E+02
Cs    1.5254841332418528E+02   -2.2829214062367845E+02   -1.1051312617585486E+02
Cs    2.0210524422490650E+02   -3.1938819296324232E+02   -8.6479857498816543E+01
Cs    1.4451854908000058E+02   -6.5464043741725689E+01   -8.8055595870171587E+01
Cs    1.8551008271250231E+02   -1.0238353344705243E+02   -5.9220003629455860E+01
Cs    1.3103861033374889E+02   -7.3634036302241341E+01   -3.5553441362336343E+01
Cs    1.1238839052189299E+02    4.7876640497373302E+01   -3.0061008173483623E+00
Cs    1.3661595309491821E+02    4.3911602954663714E+01    4.3007719013176690E+01
Cs    2.0930128373023997E+01    1.1476975140861926E+02    4.1164790447313322E+01
Cs    1.4157557732669021E+01   -7.9177838994616792E+01   -7.7741099051022459E+01
Cs    6.1523561613641661E+01   -6.5198257197298304E+01   -2.9816097130405083E+01
Cs   -4.9317492106163520E+01   -1.1206216336829645E+02    6.5875308733193080E+01
Cs   -1.0695782386897660E+02    1.1903034698899951E+01   -1.2640253729989510E+01
Cs   -1.0555660520794046E+02    1.4351183167514006E+02    7.1649909872653353E+01
Cs   -1.0511953881962829E+02    2.4895047641147265E+01    6.1895415183226227E+01
Cs   -1.0537964672575660E+02    2.1790892222118063E+02    9.6542921329784086E+00
Cs   -9.4722939297262073E+01    2.0576374337878835E+02    9.5322915368971280E+01
Cs   -1.4063703816425797E+02    2.9696286909890767E+02    1.1879048561939199E+02
Cs    1.9868169470183196E+02   -1.2214888351670631E+02   -9.7852385186114859E+01
Cs    1.2693144304790987E+02   -7.2757034396449598E+01   -4.4122384406554623E+01
Cs    7.2976321021936485E+01   -1.2294277381193699E+02   -1.1808025311225789E+01
Cs    6.2013734377334274E+01    5.3964995450134758E+01   -5.1348633909360899E+01
Cs    7.3141814361910463E+01   -4.9523125722888814E+01   -2.6091870316676829E+01
Cs   -1.8871674753343072E+01    9.4529461376175149E+01    4.8274492115839891E+01
Cs    1.6441370651190805E+00    1.6199953964798752E+02   -3.2923239499492212E+01
Cs    4.1699681212921696E+01    1.6622871858393376E+02   -3.6008895477192411E+01
Cs   -1.7328264518677152E+01    2.3550185748896689E+02    5.1702379351591283E+01
Cs    2.4057119964620622E+02   -1.2296484856014268E+02   -8.9116621272772150E+01
Cs    3.1682882192106729E+02   -2.0221274593191839E+02   -1.3106635101574633E+02
Cs    1.3686002303630457E+02   -1.1025179000411458E+02    2.0064952316666265E+01
Cs    2.2641274839984183E+02   -1.3114312989598173E+02   -9.8675505681455206E+01
Cs    2.0828867475983583E+02   -7.3083307093357277E+01   -9.3874869001033431E+01
Cs    2.5132612349537416E+02   -7.2718344349566934E+01   -1.0316115098442351E+01
Cs    1.4599580179530031E+02    7.6811719042389768E+01   -5.7207350065415802E+01
Cs    1.5378563032670732E+02    1.3268470491904475E+02   -2.0327528352669077E+01
Cs    1.4328200155167454E+02    1.1482280751529372E+02    3.2263601516278833E+01
Cs   -3.1712967838972013E+01   -1.0156966236706317E+02   -7.9622080799823522E+01
Cs   -1.1598852711829319E+02   -3.0681506817073640E+01    1.7899128805991227E+00
Cs   -1.5975445848014934E+02   -6.1513377621326759E+00    9.7776981591176508E+01
Cs   -6.0448656074490962E+01    5.5379421722658726E+01   -3.4956710331152001E+00
Cs   -1.7395497800653905E+02    5.9553974375320671E+01    2.0466172087866973E+01
Cs   -1.2264454573444836E+02    5.5913903089236427E+00    9.0721742247143538E+01
Cs   -1.5457851337758132E+02    2.6063368692507765E+02    2.8182197460112647E+01
Cs   -1.9564825397527900E+02    2.2823992526924610E+02    9.1974415429044271E+01
Cs   -3.5780487473160690E+02    2.3584699975192441E+02    1.6325166317646611E+02
Cs    7.8368323770056520E+01   -8.1147747464530724E+01   -1.1634680834658270E+02
Cs    4.4497415452234437E+00   -7.2960203716239732E+01    5.4727493682263741E+00
Cs    3.5072594535905957E+01   -3.8137953329551287E+01    2.5885810050348997E+01
Cs    2.0373326543392881E+01   -8.4507254748452247E+00   -4.3167418453320998E+01
Cs   -2.3311277385815554E+00    3.7992124870491480E+01    1.7147872134846470E+01
Cs   -7.2358059212564598E+01    7.0277562130313029E+01    6.8791497990041009E+01
Cs   -6.0187055675046764E+01    1.5758900400558727E+02    3.2066408759120243E+01
Cs   -3.5559246374628557E+01    1.4896031849924410E+02    4.7591914328911962E+01
Cs   -1.4114132490599513E+02    1.8463453219249223E+02    1.5519074717989830E+02
Cs    1.7329726174021991E+02   -1.8686872568297832E+02   -1.0084464894896814E+02
Cs    2.0516146745918508E+02   -1.3517136395556210E+02   -3.2367329457795506E+01
Cs    1.7254620549640509E+02   -1.1710540807947268E+02    1.5895757105243073E+01
Cs    1.9375167833652185E+02   -4.7784418718434779E+01   -4.6650262988054699E+01
Cs    2.6274097943226149E+01    2.5087516766618325E+01    3.6612826328788536E+01
Cs    1.9748047792628679E+01    8.3796944561533422E+01    6.9419288435470932E+01
Cs    1.4786749256836694E+02    1.3265585816933336E+02   -2.7845679874963970E+01
Cs   -1.4391856189652645E+00    1.7315811600958187E+02    3.3207975055981677E+01
Cs    1.4790996508573024E+01    1.8538329634399759E+02    8.2268305548345879E+01
Cs   -1.2911356279621410E+02   -1.3024222830733987E+02   -3.8576942812145894E+01
Cs   -7.5822629806290266E+01   -1.6518697331794115E+02    6.6767264527970354E+01
Cs   -2.2696956566393439E+02   -6.2950345815155306E-01    1.0802383703502697E+02
Cs   -2.0780927871852202E+02    5.6573023553522068E+00   -3.8465448926552611E+01
Cs   -1.9753114991034445E+02    3.9511037343958968E+01    5.9486650336571643E+01
Cs   -1.6980717812909700E+02    3.4954709284282321E+00    7.9362389859742436E+01
Cs   -1.9127185665892202E+02    2.1772503956991673E+02    4.7715339986012545E+01
Cs   -1.3741606683392791E+02    2.3786847137923280E+02    4.7834731045319245E+01
Cs   -1.9071583043264025E+02    1.6709872924035761E+02    1.3061169956405490E+02
Cs    1.5589753805907851E+01   -1.4498663209625207E+02   -5.9437880824689699E+01
Cs   -4.1863440903440704E+01   -1.5577429256122500E+02   -2.7408322015220310E+01
Cs    3.5415655413115061E+01   -1.7784171833693435E+02   -1.8623672437031182E+01
Cs    1.6683629959435834E+01   -4.7842954236540528E+01   -2.3301715569443811E+01
Cs   -6.7357935435203188E+01   -4.0490740858543319E+01   -2.9252288578466228E+00
Cs   -5.4555235428005794E+01   -7.0300665011968647E+01    4.5297763693178412E+00
Cs    1.7105342461341060E+01    6.2801194955154131E+01   -4.3283317550841460E+01
Cs   -2.5558535873731152E+01    8.0815462531815314E+01   -1.6216352696867911E+01
Cs   -1.3457694072368017E+02    2.2913616554542466E+02    8.7711966334957268E+01
Cs    1.0135347424053948E+02   -2.5094371384796185E+02   -9.7652110878535737E+01
Cs    1.4158324260136851E+02   -1.7004409487325509E+02   -6.7587331268929063E+01
Cs    1.3512350525176203E+02   -1.5504046147443279E+02   -1.7622688629676873E+01
Cs    1.0116058217742655E+02   -8.8340708488567671E+01   -1.0426596817678082E+02
Cs    3.4485256557293745E+01   -5.2914442729168364E+01   -2.1462455095684486E+01
Cs    4.5413648107229534E+00    4.2709626600123265E+00    2.2604890426080143E+01
Cs    9.1264075082167025E+01    4.6448239776034846E+01   -7.0257145093601579E+01
Cs    4.9778352142180047E+01    4.8843761598855302E+01   -1.2022327882353535E+01
Cs   -3.3484537520731017E+01    1.8651155486265571E+02    9.7118249137938079E+01
Br   -1.1162748970266394E+02   -1.3241284409624672E+02   -3.9584899166548908E+01
Br   -1.8148561238076701E+02   -5.4725804641158531E+00    4.4752812360475033E+01
Br   -1.9428275682464022E+02   -3.0344872145254758E+01    7.3232141389020327E+01
Br   -1.2397596912386190E+02    1.1452139629728570E+00   -3.3688435096421756E+01
Br   -1.7756256610637715E+02    6.0548009848916521E+01    1.7202978436496103E+01
Br   -1.5138757780688414E+02    1.2562655699394448E+01    3.9173219559700435E+01
Br   -1.0483591779530416E+02    1.4297516183739418E+02   -5.1303046079885375E+00
Br   -2.0743837794518541E+02    2.4473906491007452E+02    8.1188426045739675E+01
Br   -2.4161286273872062E+02    2.4051826191490369E+02    1.1575370812582892E+02
Br   -2.2152839321331186E+01   -1.0327521164489734E+02   -8.0344954077411415E+01
Br   -2.1777449837149586E+01   -1.0238710815002965E+02   -3.1204226111262766E+01
Br   -5.9031628390411498E+01   -6.6901830729280121E+01    4.6835539735498051E+00
Br    8.1457931258648046E+01   -8.3614210095704024E+01   -1.1143947701969722E+02
Br   -3.5414462265716038E+00    1.9377173234110863E+01    7.8235902972044946E-01
Br   -2.3055785818745349E+01    1.7771349547056346E+01    4.8272412265939558E+01
Br   -8.0033227491334017E+01    1.1680691909743932E+02   -1.0338817578629030E+01
Br    2.2254268241139568E+00    1.5408835549325698E+02    2.6571644726662967E+01
Br   -1.5434043256485410E+02    2.3918232968335289E+02    8.7941633734630088E+01
Br    1.9949038499887681E+02   -1.1914685448935242E+02   -1.0326454747456289E+02
Br    1.5564211471707716E+02   -1.8553280292031056E+02   -3.8470973077101618E+01
Br    1.4852254290134519E+02   -1.5779643232874869E+02   -2.5658210226862487E+01
Br    1.7787441507521123E+02   -6.3404817751493823E+01   -6.7395351588931959E+01
Br    1.3604891210940303E+02   -4.9344283088685145E+01   -6.8270235542380675E+01
Br    1.9759756083592784E+01    8.0155486145685302E+00    2.0065360408257408E+01
Br    6.4485302328748560E+01    1.1859354784306950E+02   -4.2701959058377028E+01
Br   -1.2956126920860978E+01    1.5231352657479457E+02   -1.7464128380837423E+01
Br   -1.2493292264411163E+02    2.1395848986044521E+02    1.0467423762586841E+02
Br   -9.2582753367161430E+01   -1.8479455928979675E+02   -1.6516178192759259E+01
Br   -6.3522216600430120E+01   -6.7709881965681092E+01    2.8552791080851256E+00
Br   -2.3783969154428081E+02    9.8817093390752717E+00    8.5433023265948407E+01
Br   -2.2070937283077546E+02    6.1209402556361020E+01    5.4418603086033130E+01
Br   -2.4681696628099235E+02    4.2553259571399323E+01    4.2243130781517401E+01
Br   -1.6461938219677262E+02   -3.4940413736175252E+01    6.9488013033861421E+01
Br   -2.0677969548727981E+02    2.0930413530061415E+02    4.2840134184094929E+01
Br   -2.0778997324988441E+02    1.9367465937928156E+02    1.0151589037473980E+02
Br   -3.7754122444349179E+02    2.1877641639423800E+02    1.7811832432158678E+02
Br    1.6247726146428814E+01   -1.4494780165696764E+02   -6.4691719648221877E+01
Br    1.6907273785075031E+02   -1.7242217507153234E+02   -6.1851760663036799E+01
Br   -5.1865382325004873E+01   -1.0822820624685713E+02    7.4930808004601275E+01
Br    2.3754362761693677E+01   -1.6913287289070951E+00   -7.2888984782190988E+01
Br   -1.5500059213694959E+02    4.5549411602416740E+01    5.1721752229403457E+01
Br   -5.9372021652756167E+01    4.0644890018500263E+01    4.8825616249878699E+01
Br   -1.3707269303073602E+02    2.4074108965708353E+02    3.1790134814204858E+01
Br    1.0447591767371213E+01    1.5307307594856567E+02    2.5992966308780716E+01
Br   -1.4394335205033502E+02    1.4753002354891788E+02    1.3688224931964825E+02
Br    1.5275957122653350E+02   -1.8922111397114577E+02   -8.4859972480893660E+01
Br    2.1054378926254378E+02   -1.7190575016277720E+02   -4.3645498083872127E+01
Br    9.8213609263839956E+01   -1.6595260921700782E+02    1.0083604289382974E+01
Br    1.1354221140564388E+02   -3.9993491628557564E+01   -6.3664802405214111E+01
Br    4.1361254827574896E+01   -4.8503580328489640E+01   -3.5624642821345631E+01
Br    1.1817549436038879E+01    4.0604382869314534E+01    1.3105848818309653E+02