&FORCE_EVAL
  METHOD  FIST
  &MM
    &FORCEFIELD
      &CHARGE
        ATOM  Cs
        CHARGE  0.2
      &END
      &CHARGE
        ATOM  Pb
        CHARGE  0.4
      &END
      &CHARGE
        ATOM  Br
        CHARGE  -0.2
      &END
      DO_NONBONDED
      EI_SCALE14  1.0
      IGNORE_MISSING_CRITICAL_PARAMS
      &NONBONDED
        &LENNARD-JONES
          ATOMS  Cs Cs
          EPSILON  [kjmol] 0.18828
          SIGMA  [nm] 0.585
        &END
        &LENNARD-JONES
          ATOMS  Cs Pb
          EPSILON  [kjmol] 0.7226944124316999
          SIGMA  [nm] 0.51
        &END
        &LENNARD-JONES
          ATOMS  Br Pb
          EPSILON  [kjmol] 1.7068104799678259
          SIGMA  [nm] 0.29
        &END
        &LENNARD-JONES
          ATOMS  Br Cs
          EPSILON  [kjmol] 0.4446668905146863
          SIGMA  [nm] 0.385
        &END
        &LENNARD-JONES
          ATOMS  Br Br
          EPSILON  [kjmol] 1.050184
          SIGMA  [nm] 0.426
        &END
        &LENNARD-JONES
          ATOMS  Pb Pb
          EPSILON  [kjmol] 2.773992
          SIGMA  [nm] 0.598
        &END
      &END
      SHIFT_CUTOFF  .TRUE.
      &SPLINE
        R0_NB  0.1
      &END
      VDW_SCALE14  1.0
    &END
    &POISSON
      &EWALD
        EWALD_TYPE  SPME
        GMAX  22
        O_SPLINE  4
      &END
      PERIODIC  xyz
    &END
    &PRINT
      &FF_INFO LOW
        SPLINE_DATA  .FALSE.
        SPLINE_INFO  .FALSE.
      &END
    &END
  &END
  STRESS_TENSOR  Analytical
  &SUBSYS
    &CELL
      A  26.79 0.00 0.00
      B  -0.00 38.09 0.00
      C  0.00 -0.00 26.74
      PERIODIC  xyz
    &END
    &COORD 
 Br -8.7915664329 16.1218382819 -0.294908907
 Br -8.7941637157 16.121104745 8.6038966957
 Br 0.1271503611 -9.273961344 -9.2034752647
 Br 0.1340240528 -9.2740593498 -0.2841548462
 Br 0.1306061539 -9.2746503886 8.6156389678
 Br 0.1305284769 3.4250943301 -9.1984988765
 Br 0.1368823655 3.4242933851 -0.2804479162
 Br 0.133978166 3.4239067661 8.6203269536
 Br 0.1314564479 16.1227907523 -9.2087988612
 Br 0.1379763213 16.1219866746 -0.290016261
 Br 0.1352835479 16.1211572589 8.6091877253
 Br 9.0537592048 -9.2737552615 -9.2037114131
 Br 9.0609242046 -9.273839437 -0.2851987299
 Br 9.0574701039 -9.2745013969 8.6150945759
 Br 9.0568692418 3.4250618222 -9.1989590901
 Br 9.0634534301 3.4243032043 -0.2816504181
 Br 9.0603705443 3.4241373274 8.619409414
 Br 9.0580157323 16.122896156 -9.209229431
 Br 9.0648836959 16.1220547044 -0.290891614
 Br 9.0620606899 16.1212689941 8.6085453965
 Pb -13.3369043243 -12.4482684912 -13.3054760299
 Pb -13.3373920473 -12.4474414892 -4.3889107307
 Pb -13.3339627199 -12.449250971 4.5210597846
 Pb -13.3335806701 0.2500298061 -13.3056407741
 Pb -13.3345318055 0.2505441914 -4.3897915837
 Pb -13.3309243827 0.2489876399 4.520849608
 Pb -13.3314250294 12.9479164378 -13.3062995092
 Pb -13.3320481519 12.9485373634 -4.3901656659
 Pb -13.3288277294 12.946379252 4.5196801979
 Pb -4.405370625 -12.4487343826 -13.307253487
 Pb -4.4052988039 -12.4474511877 -4.3904897266
 Pb -4.4024934973 -12.4495541315 4.519754131
 Pb -4.4022476093 0.2495798812 -13.3071671762
 Pb -4.402511249 0.2506489183 -4.3914121344
 Pb -4.3995010852 0.2486759962 4.5192543255
 Pb -4.399850274 12.9476699692 -13.3080981596
 Pb -4.3998744599 12.9484538702 -4.3917786331
 Pb -4.3975743214 12.9460539633 4.5182583463
 Pb 4.5225874286 -12.4489504762 -13.3037245822
 Pb 4.5218844521 -12.4480502832 -4.3874965829
 Pb 4.5253508286 -12.4497225605 4.5232133514
 Pb 4.5257902712 0.2491381421 -13.3038805895
 Pb 4.5249464204 0.2497528679 -4.3883736125
 Pb 4.5283056365 0.2480863571 4.5230631128
 Pb 4.528193001 12.947302482 -13.3046213814
 Pb 4.5270655612 12.9479431352 -4.3888091862
 Pb 4.5302869188 12.9457928506 4.5216270059
 Pb -8.8718023711 -12.4491981596 -8.8477209933
 Pb -8.8689444763 -12.4481081308 0.0645214523
 Pb -8.8673692588 -12.4481735046 8.9765634139
 Pb -8.868780872 0.248802924 -8.8488760778
 Pb -8.8662300775 0.2498972888 0.063266708
 Pb -8.8645578218 0.2500115084 8.9759689276
 Pb -8.8660964368 12.9472835808 -8.8492098136
 Pb -8.8637833693 12.9474930866 0.0625500435
 Pb -8.861854866 12.9478726996 8.9748944631
 Pb 0.0576421964 -12.4494033539 -8.8459473659
 Pb 0.0593390132 -12.4485627821 0.0659823102
 Pb 0.0619767114 -12.4483683533 8.978258814
 Pb 0.0607425069 0.2488118317 -8.846975173
 Pb 0.0622294791 0.2494800856 0.0648547737
 Pb 0.06474642 0.2496055245 8.9778763796
 Pb 0.0630886307 12.9468751066 -8.8474985177
 Pb 0.0647219661 12.9471680557 0.0639589969
 Pb 0.0672771837 12.9475498738 8.9767955788
 Pb 8.9869520178 -12.4492997882 -8.8439957272
 Pb 8.9889514899 -12.4482510448 0.0678635721
 Pb 8.9907649683 -12.4483389045 8.9793530032
 Pb 8.9901663591 0.2488378578 -8.8448784445
 Pb 8.9919386372 0.2496044585 0.0667234853
 Pb 8.9937895202 0.2499003653 8.9789662953
 Pb 8.992590605 12.9469988664 -8.8456657446
 Pb 8.9940767543 12.9471399878 0.0658018052
 Pb 8.9960936939 12.9474552718 8.9778024154
 Pb -13.3336989345 -18.7966282849 -13.3056875853
 Pb -13.3343283901 -18.7966998675 -4.3894747562
 Pb -13.3308643305 -18.7970959262 4.5202855874
 Pb -13.3356001358 -6.0999375407 -13.3050719532
 Pb -13.3363713686 -6.1001153589 -4.3893169379
 Pb -13.3327797502 -6.1001360102 4.5211894616
 Pb -13.3312894607 6.5991487255 -13.3066284013
 Pb -13.332379812 6.5991249026 -4.3906378018
 Pb -13.3288440448 6.5987179109 4.5197909277
 Pb -4.4020667875 -18.7965289837 -13.3074543889
 Pb -4.4020694287 -18.796955965 -4.3908186957
 Pb -4.3997881192 -18.796989805 4.5187635484
 Pb -4.4041928113 -6.0998442136 -13.3066787524
 Pb -4.4045210873 -6.0999854449 -4.3906598976
 Pb -4.4015111104 -6.0999995672 4.5196997952
 Pb -4.39976955 6.5993519337 -13.308328889
 Pb -4.3998813006 6.5987360302 -4.392330185
 Pb -4.3972809015 6.5986880632 4.5183807299
 Pb 4.5257659393 -18.7958417984 -13.304265853
 Pb 4.525116615 -18.7960866825 -4.3877260603
 Pb 4.528390829 -18.7964157524 4.5224246091
 Pb 4.5236607506 -6.0992681775 -13.3034510369
 Pb 4.522953922 -6.0993495613 -4.3877137058
 Pb 4.526380249 -6.0995554523 4.5234407189
 Pb 4.528154322 6.5998388358 -13.3049818202
 Pb 4.5270725649 6.5995350931 -4.3892517335
 Pb 4.5305983868 6.5988965286 4.5219288915
 Pb -8.8686553297 -18.7949188271 -8.8481003198
 Pb -8.865997354 -18.7972728057 0.0638784957
 Pb -8.8642094744 -18.7986014066 8.975578379
 Pb -8.870562675 -6.0986767594 -8.8485461343
 Pb -8.8681194054 -6.1000343239 0.0637015168
 Pb -8.8664391235 -6.1014479379 8.9763864805
 Pb -8.866306075 6.6007998151 -8.8488296861
 Pb -8.8639190078 6.5984063275 0.0630189335
 Pb -8.8621085078 6.597774555 8.9756611158
 Pb 0.0608479131 -18.7946874911 -8.8463056828
 Pb 0.0624951312 -18.7967707864 0.0653121921
 Pb 0.0650805287 -18.7982054383 8.9777072119
 Pb 0.0587116545 -6.0985110989 -8.8466355259
 Pb 0.0601672959 -6.0999022111 0.0652386562
 Pb 0.0627363291 -6.1012450396 8.9780140055
 Pb 0.0633833761 6.6010628697 -8.8471238241
 Pb 0.0647192815 6.5989268776 0.0646471299
 Pb 0.0671942642 6.5979472357 8.9775485627
 Pb 8.9902700926 -18.794474949 -8.8442776014
 Pb 8.9918757286 -18.7965819951 0.067262087
 Pb 8.9939556656 -18.7979626862 8.9785513258
 Pb 8.9881042462 -6.0981499751 -8.8445723754
 Pb 8.9899793109 -6.0996420137 0.0669450872
 Pb 8.9918253529 -6.1009636893 8.9791232937
 Pb 8.9924579011 6.6011922811 -8.8453393288
 Pb 8.994088257 6.5987226184 0.0664971404
 Pb 8.9960055392 6.5981808494 8.9787031689
 Cs -8.7734912232 -15.6215452714 -13.3306479373
 Cs -8.7702227032 -15.6211619534 -4.4030122626
 Cs -8.7670552021 -15.6222057799 4.5004902153
 Cs -8.7744012235 -2.9256290984 -13.3308262167
 Cs -8.7710078671 -2.9257068594 -4.404841272
 Cs -8.7672798872 -2.9263313024 4.5002860609
 Cs -8.7685108894 9.774553016 -13.3305610931
 Cs -8.7653805913 9.7748272583 -4.4041240307
 Cs -8.7622344462 9.7734384511 4.4999370789
 Cs 0.1512807931 -15.6217129206 -13.3293985287
 Cs 0.1534172341 -15.6213774581 -4.4017725643
 Cs 0.1567969966 -15.6223318311 4.5026673349
 Cs 0.1504296573 -2.9258171449 -13.3293730414
 Cs 0.1526181143 -2.9258299059 -4.4033863094
 Cs 0.1564163322 -2.9265245053 4.5026548713
 Cs 0.1562925352 9.7747699412 -13.3291246556
 Cs 0.1581078246 9.7749621091 -4.4027069654
 Cs 0.1614319776 9.773348191 4.502252586
 Cs 9.0834674266 -15.6214378478 -13.3264097411
 Cs 9.0859859879 -15.6210162518 -4.3980462062
 Cs 9.0898274383 -15.6220247429 4.5057893686
 Cs 9.0828324999 -2.92553244 -13.3264687396
 Cs 9.0853906419 -2.9256446339 -4.3998055557
 Cs 9.0897506416 -2.9262914675 4.5057436568
 Cs 9.0883759289 9.7746241534 -13.3262674185
 Cs 9.0907367029 9.7748594056 -4.3990873344
 Cs 9.0946600115 9.7733106286 4.5052147193
 Cs -4.5026663222 -9.2748225959 -8.8660561837
 Cs -4.5028542573 -9.2750039228 0.0471723878
 Cs -4.4963565462 -9.2754494672 8.9525574024
 Cs -4.4966068706 3.4257034013 -8.8681209362
 Cs -4.4969637618 3.4251276962 0.044951915
 Cs -4.4906325196 3.4245539092 8.9510947032
 Cs -4.4981255993 16.1216477716 -8.8664174681
 Cs -4.4982880598 16.1201988585 0.0460695049
 Cs -4.4915555806 16.1200045385 8.9510183004
 Cs 4.4232740623 -9.2746727427 -8.8603655154
 Cs 4.4227940304 -9.2749183636 0.0522721349
 Cs 4.4301430768 -9.275201995 8.9575836364
 Cs 4.4293371795 3.4254831825 -8.8625136429
 Cs 4.4285900439 3.4248660407 0.0499577392
 Cs 4.4359711955 3.4244982735 8.9561623226
 Cs 4.427693388 16.1217640615 -8.8610750303
 Cs 4.4272547538 16.1203994703 0.0509620563
 Cs 4.4350269603 16.1200313939 8.9559162747
 Cs 13.3527851131 -9.2745403716 -8.8624875888
 Cs 13.3524603833 -9.2749193744 0.0509912009
 Cs 13.3590850974 -9.2751026675 8.9556644461
 Cs 13.3588780688 3.425658805 -8.8646392871
 Cs 13.3582900345 3.4250237861 0.0485666189
 Cs 13.364871876 3.4245696459 8.9540434746
 Cs 13.3568815022 16.1215970772 -8.8627167441
 Cs 13.3566129442 16.1202753557 0.0499099163
 Cs 13.3636199458 16.1199834655 8.9541283086
 Cs -8.9685799459 -9.2742702875 -4.3763571421
 Cs -8.9648042956 -9.2752836366 4.5296454569
 Cs -8.9623662321 -9.275162295 13.457521976
 Cs -8.9630318392 3.4255683484 -4.3767564096
 Cs -8.9591976412 3.4247014087 4.5304000901
 Cs -8.9560939031 3.4248918195 13.4578808056
 Cs -8.9638163042 16.1212189324 -4.3770906542
 Cs -8.9605584883 16.1196963987 4.52805771
 Cs -8.9578896621 16.1202729358 13.4567823968
 Cs -0.0372202513 -9.2745302328 -4.3727577525
 Cs -0.033875182 -9.2754865365 4.5336723789
 Cs -0.0309133159 -9.2752730216 13.460346422
 Cs -0.0314933127 3.4255723087 -4.3732111418
 Cs -0.0280289414 3.4245496721 4.5344566429
 Cs -0.0244430561 3.4248207985 13.4608018643
 Cs -0.0323984079 16.1213702867 -4.3732579387
 Cs -0.0296082573 16.1198916208 4.5323016347
 Cs -0.0263008026 16.1204291888 13.4598205394
 Cs 8.8865422742 -9.2742749155 -4.370630657
 Cs 8.8900353358 -9.2752022454 4.5346464708
 Cs 8.8937216052 -9.2749586339 13.4620616126
 Cs 8.8921523516 3.4256667131 -4.3711296562
 Cs 8.8956120763 3.4247173001 4.5352405335
 Cs 8.9000292839 3.4248942594 13.4624766453
 Cs 8.8912103503 16.121276718 -4.3714838213
 Cs 8.894015734 16.1196436435 4.5327129965
 Cs 8.8980607038 16.1202980799 13.4611426061
 Cs -13.2388284529 -15.6211358266 -8.8233843051
 Cs -13.2317678626 -15.6215148751 0.0802186851
 Cs -13.2327684741 -15.6223877612 8.9944231844
 Cs -13.2392744969 -2.9254283046 -8.8237493622
 Cs -13.2323930426 -2.9258280153 0.0804197623
 Cs -13.2336084255 -2.9262076091 8.995733224
 Cs -13.2337120509 9.7751537541 -8.8255731913
 Cs -13.22697876 9.7741416115 0.0780073645
 Cs -13.2282439882 9.7737865985 8.9931830034
 Cs -4.3103934097 -15.6213563679 -8.8242824824
 Cs -4.3027210944 -15.6218702104 0.079331738
 Cs -4.3038041448 -15.6226877371 8.993639826
 Cs -4.3108808927 -2.9255696557 -8.8249550458
 Cs -4.30321348 -2.925938219 0.0792823182
 Cs -4.3046225257 -2.9263151525 8.9945663919
 Cs -4.3052231909 9.7750149549 -8.8266011662
 Cs -4.2977625475 9.7739734427 0.0770653399
 Cs -4.29912499 9.77374361 8.9920749745
 Cs 4.616748941 -15.6211389696 -8.8199701233
 Cs 4.6233680658 -15.6215980224 0.083551544
 Cs 4.6227904024 -15.6224667312 8.9982309031
 Cs 4.6165660661 -2.9256261158 -8.8203763794
 Cs 4.6231570664 -2.9260036715 0.0836319674
 Cs 4.6222975868 -2.9263826554 8.9993558477
 Cs 4.6218341751 9.775134585 -8.822130937
 Cs 4.6282132083 9.7740894626 0.0813225149
 Cs 4.6274187059 9.7738691258 8.9969443991
 Br -10.732998911 -12.7032544621 -11.4501635346
 Br -10.7312479497 -12.6923124861 -2.5376504651
 Br -10.7285013408 -12.7011461799 6.3736092875
 Br -10.7238186891 0.0006797205 -11.4574019727
 Br -10.7232943792 0.0099898599 -2.5448648455
 Br -10.7204082506 0.0015318596 6.3675099249
 Br -10.729657122 12.6920843655 -11.4500130002
 Br -10.7281323678 12.7021401037 -2.5378081578
 Br -10.7261860956 12.6931896763 6.3739729046
 Br -1.8024944672 -12.7007955402 -11.4501237437
 Br -1.8005234086 -12.6884205851 -2.5376413903
 Br -1.7976450818 -12.6969314887 6.3737515883
 Br -1.7931758107 0.0035558956 -11.4570636204
 Br -1.7928596841 0.0149240497 -2.5441876945
 Br -1.7897566616 0.0066254118 6.3681597517
 Br -1.7987658389 12.6947863089 -11.4501418646
 Br -1.7972912768 12.7064044526 -2.5376483072
 Br -1.7952712789 12.6975836619 6.3742253197
 Br 7.124797442 -12.7023932667 -11.4458906195
 Br 7.1259163871 -12.6903588055 -2.533370995
 Br 7.1292420657 -12.6982757097 6.3773761417
 Br 7.1344389048 0.0017951471 -11.4529843183
 Br 7.1341022043 0.0124878584 -2.5402461737
 Br 7.1376982321 0.0046003781 6.3714019904
 Br 7.1286074129 12.6931997706 -11.4461136638
 Br 7.1295248711 12.7044260492 -2.5338870662
 Br 7.1319844309 12.6957785716 6.3773170769
 Br -11.4757344978 -12.1909561175 -6.9927499805
 Br -11.471047005 -12.1921060902 1.9186853705
 Br -11.4701912928 -12.1897588199 10.8332216967
 Br -11.4794942325 0.499911374 -6.9999904616
 Br -11.4744587207 0.4998740276 1.9122349332
 Br -11.4740943391 0.5021245229 10.8266789612
 Br -11.4695537563 13.2049665944 -6.9924895774
 Br -11.4649008386 13.2037310415 1.9188421381
 Br -11.4638660888 13.2070473959 10.8338102849
 Br -2.5461809803 -12.1911172759 -6.9940321522
 Br -2.542153854 -12.1923755621 1.9173026297
 Br -2.5406052768 -12.1915173559 10.8321927291
 Br -2.5497088218 0.4999866832 -7.0011620508
 Br -2.5450654062 0.499504691 1.9116043502
 Br -2.5442798728 0.5005047203 10.8258803065
 Br -2.539812588 13.2047399621 -6.9936173625
 Br -2.5359828683 13.2034175333 1.9176156613
 Br -2.5342110554 13.2054179674 10.8329185492
 Br 6.3832435832 -12.1912605624 -6.988755766
 Br 6.3869421699 -12.1916711174 1.9222482674
 Br 6.3886323467 -12.1907598726 10.8370117136
 Br 6.3793505516 0.5000282815 -6.9960525721
 Br 6.3837889272 0.5002536281 1.9160733899
 Br 6.3848118344 0.5010595575 10.8305904818
 Br 6.3890580767 13.2046765028 -6.9889411751
 Br 6.39287956 13.2037624727 1.9221047383
 Br 6.3945930922 13.2058700454 10.8371070529
 Br -7.0125129429 -6.3429931324 -6.242069523
 Br -7.009268903 -6.3395774001 2.6695397078
 Br -7.0081048574 -6.3508893683 11.5822581229
 Br -7.008260226 6.356689933 -6.2430389603
 Br -7.0046987206 6.3589180248 2.667966559
 Br -7.0037710935 6.3485512992 11.581095178
 Br -7.0075388654 19.0488627144 -6.2449729417
 Br -7.0053947534 19.0522214664 2.6663987352
 Br -7.0033326154 19.0404110151 11.578061238
 Br 1.9152486477 -6.3442052957 -6.2392054441
 Br 1.9180738139 -6.339450931 2.6730164549
 Br 1.9193145823 -6.3504720645 11.586147554
 Br 1.9190627206 6.3556458141 -6.2398056703
 Br 1.9224034018 6.3592649068 2.6717880934
 Br 1.9238021708 6.3493917308 11.5851024463
 Br 1.9200496766 19.047962045 -6.2417954524
 Br 1.9217480759 19.0524730012 2.6701909266
 Br 1.9241948489 19.0410458747 11.5819383882
 Br 10.8459283509 -6.3482464119 -6.2383051657
 Br 10.8490668673 -6.3433339489 2.6733307196
 Br 10.8501508899 -6.3534903928 11.5862275179
 Br 10.8497637159 6.3515701232 -6.2391664573
 Br 10.8533148694 6.3556783993 2.6717207058
 Br 10.8547257958 6.3462624333 11.584789725
 Br 10.8506296296 19.0442118627 -6.2410631393
 Br 10.8525048884 19.0490996941 2.6706100718
 Br 10.8548833694 19.0382792036 11.5821042833
 Br -6.2644235437 -18.5371273546 -10.7040975405
 Br -6.2626128185 -18.539335839 -1.7894122744
 Br -6.2587772732 -18.5400450121 7.1211537973
 Br -6.2625100082 -5.8465365201 -10.7006495399
 Br -6.2622333664 -5.8476761786 -1.7868206326
 Br -6.2579185003 -5.8483116421 7.1246802655
 Br -6.2592280089 6.8540070598 -10.7024342744
 Br -6.2586550481 6.8518451483 -1.7883423922
 Br -6.2552350584 6.8518540363 7.1225475091
 Br 2.6645924789 -18.5365799103 -10.6994358578
 Br 2.6661204619 -18.5395501646 -1.7846550917
 Br 2.670657856 -18.5403638943 7.1262508469
 Br 2.6663336387 -5.8461209878 -10.6961013422
 Br 2.6665140588 -5.8479075785 -1.7822404542
 Br 2.6712623137 -5.848723958 7.1297681291
 Br 2.6695464895 6.8543087831 -10.6977170044
 Br 2.6697730826 6.8511964588 -1.7837468497
 Br 2.6740601365 6.8514457681 7.1277026175
 Br 11.5944425786 -18.5357805899 -10.7004991611
 Br 11.5957328611 -18.5386578723 -1.7857277119
 Br 11.6004467885 -18.5400655422 7.1250219561
 Br 11.5962728258 -5.8454630218 -10.6971641893
 Br 11.5962150621 -5.8470124843 -1.7833468722
 Br 11.6012951476 -5.8484831098 7.1284026205
 Br 11.5994092196 6.8548578693 -10.6988851698
 Br 11.5994550156 6.8519285922 -1.7849427823
 Br 11.6039478202 6.8513590829 7.1263122409
 Br -7.0091221051 -12.2008103104 -6.2452240696
 Br -7.0063659423 -12.2061071668 2.6662069927
 Br -7.0049856829 -12.1947806878 11.5784630815
 Br -7.0131244138 0.4907920285 -6.2403454918
 Br -7.0094222233 0.4864808079 2.6710553725
 Br -7.0083748082 0.4973314593 11.5838525742
 Br -7.0028276912 13.1955827428 -6.2483343322
 Br -7.0000224606 13.1899303978 2.6626599304
 Br -6.998128868 13.2019214377 11.5753372804
 Br 1.918646899 -12.19952262 -6.2424724716
 Br 1.9208477455 -12.2061128671 2.6697598783
 Br 1.9228301305 -12.1953056005 11.582059571
 Br 1.9146936256 0.4915131767 -6.2374079262
 Br 1.9178549642 0.4858593492 2.6745976279
 Br 1.9191435605 0.4964663401 11.5878483738
 Br 1.9243635507 13.1967873429 -6.2448381559
 Br 1.9267840096 13.189756837 2.6665751027
 Br 1.9293170383 13.2012584011 11.5794348599
 Br 10.8494224349 -12.1955181406 -6.2416985789
 Br 10.8519736432 -12.2023847955 2.6697441732
 Br 10.8535840772 -12.1921610206 11.5820846925
 Br 10.8452927134 0.4961486045 -6.2364054163
 Br 10.8486529572 0.4903673719 2.6752317825
 Br 10.8499354582 0.5001096301 11.5880009829
 Br 10.8552080873 13.2007231511 -6.2444077753
 Br 10.8577209614 13.1931674149 2.6664768283
 Br 10.8601999086 13.204044622 11.5789914653
 Br -6.2679524349 -12.7059466498 -10.7047983773
 Br -6.2665903659 -12.7038717896 -1.790133934
 Br -6.2627627795 -12.7049067559 7.1205487192
 Br -6.2591367153 -0.0012857137 -10.6994233803
 Br -6.2582403387 -0.0006421305 -1.7853300412
 Br -6.2545141302 -0.0019020676 7.1262384526
 Br -6.2647416161 12.6894755215 -10.7077427094
 Br -6.2632798635 12.6906179263 -1.7931410618
 Br -6.2601891655 12.689045503 7.1171538595
 Br 2.660658071 -12.706140659 -10.7005120244
 Br 2.6618846788 -12.7036033361 -1.7857398833
 Br 2.6663606615 -12.7043724229 7.1253538363
 Br 2.6696718528 -0.0018687732 -10.6948747796
 Br 2.6700552661 -0.0001340964 -1.7811322919
 Br 2.6743973902 -0.0012796166 7.1309544764
 Br 2.6642706062 12.6894536234 -10.7028335818
 Br 2.6654538069 12.6912661052 -1.7881697349
 Br 2.6692628369 12.6895479934 7.1224622902
 Br 11.5906168687 -12.706411602 -10.7015075881
 Br 11.5915680967 -12.7039291245 -1.7868573641
 Br 11.5963072109 -12.7041330352 7.1241126668
 Br 11.5998961896 -0.0023259394 -10.6957161961
 Br 11.6000273175 -0.0008491452 -1.7817060802
 Br 11.6044680776 -0.0010137655 7.129795557
 Br 11.5939936909 12.6884959917 -10.7039765154
 Br 11.594846615 12.6903520959 -1.789513222
 Br 11.5989556832 12.6894599228 7.1209704245
 Br -10.7291755865 -18.5398213925 -11.4517604204
 Br -10.7273530723 -18.5503468418 -2.5400398288
 Br -10.7246451963 -18.5440820198 6.3712830025
 Br -10.727377773 -5.8487796491 -11.4552421984
 Br -10.7268343794 -5.8582547751 -2.5423903774
 Br -10.7236313463 -5.8514235287 6.3692215366
 Br -10.7239205709 6.8517315123 -11.4552831232
 Br -10.7235096994 6.8415190475 -2.5428079667
 Br -10.7208295604 6.8485940079 6.369451117
 Br -1.7984461166 -18.5421370545 -11.451565079
 Br -1.7966410787 -18.554558933 -2.5393083785
 Br -1.7938846144 -18.5483673421 6.3717463915
 Br -1.7967656639 -5.8518906587 -11.4551028326
 Br -1.7962898732 -5.8630579076 -2.5420937834
 Br -1.7928606224 -5.8564224431 6.3695556079
 Br -1.7931456323 6.8488244318 -11.4551289379
 Br -1.7927460267 6.8368767932 -2.542221391
 Br -1.7899714367 6.8436892381 6.3700827733
 Br 7.1288938211 -18.5404721477 -11.447406211
 Br 7.1302941841 -18.5523797281 -2.5356715291
 Br 7.1334810057 -18.5464836561 6.3749217162
 Br 7.1307872608 -5.8497520443 -11.4510168871
 Br 7.1306023064 -5.8603666289 -2.5379873993
 Br 7.1343457258 -5.8543710059 6.3730679119
 Br 7.1339703773 6.8502798007 -11.4510188554
 Br 7.1338459307 6.8388304368 -2.5384714915
 Br 7.1373201561 6.8458190251 6.3729842776
 Br -11.4788842247 -6.352096423 -6.997129439
 Br -11.4739407129 -6.3525758493 1.9147683025
 Br -11.4736719604 -6.3555950528 10.8291547183
 Br -11.475076911 6.3474186956 -6.9981495928
 Br -11.4697023101 6.3456610465 1.9141802002
 Br -11.4694386811 6.3434041481 10.8284763031
 Br -11.4744727318 19.0389933565 -6.99420292
 Br -11.4705132596 19.0380552611 1.9165828753
 Br -11.4689348325 19.0349600825 10.831393275
 Br -2.5492817121 -6.3524290061 -6.9983626029
 Br -2.5447847604 -6.3526645494 1.9138078535
 Br -2.5441337533 -6.3545685096 10.8281399972
 Br -2.5451517963 6.3477034955 -6.9993152169
 Br -2.540258808 6.3463429478 1.9132918183
 Br -2.5397597966 6.3450285173 10.8276594962
 Br -2.5445899366 19.039538961 -6.9951543418
 Br -2.5413036161 19.0385113859 1.9156092863
 Br -2.539210512 19.0365007697 10.8304035199
 Br 6.3800330647 -6.3520427358 -6.9932018837
 Br 6.3841490516 -6.3532436355 1.9183129152
 Br 6.3850379186 -6.3548797458 10.8328906496
 Br 6.3838060623 6.3476323024 -6.9944093572
 Br 6.3884395307 6.345397785 1.9176944614
 Br 6.3894069816 6.3446425033 10.8321891674
 Br 6.3843394121 19.0398709012 -6.9904844061
 Br 6.3875638705 19.0385049248 1.9201041698
 Br 6.3898529996 19.0367332047 10.8349443439
 Br -13.2728050459 -9.2739567625 -12.9391714486
 Br -13.2791296928 -9.2733340836 -4.0298788777
 Br -13.273318052 -9.2742659612 4.876136612
 Br -13.2694467253 3.4247491531 -12.9447136921
 Br -13.2760159905 3.424779104 -4.0368615803
 Br -13.270001485 3.4238875826 4.8715188627
 Br -13.2691377866 16.1225446128 -12.934269867
 Br -13.2753206073 16.1224581699 -4.025523871
 Br -13.2701250146 16.1211506648 4.8797479037
 Br -4.3422016487 -9.2742864188 -12.9433827378
 Br -4.3509163188 -9.2735852786 -4.03457964
 Br -4.3451826995 -9.2744505123 4.8726140456
 Br -4.3389015006 3.4247765116 -12.9490360343
 Br -4.3479245668 3.4247887762 -4.0417819547
 Br -4.3418420192 3.4238034827 4.8677284032
 Br -4.3379801991 16.1224962501 -12.9385640929
 Br -4.3465148432 16.1224211336 -4.0303975721
 Br -4.3410440648 16.1211787504 4.8761499827
 Br 4.583347903 -9.2740539231 -12.9381328734
 Br 4.5747613733 -9.2733854021 -4.0297891798
 Br 4.5799989094 -9.2742701219 4.8772955434
 Br 4.5863330523 3.4246735124 -12.9439638467
 Br 4.577427143 3.4245586296 -4.0369865435
 Br 4.5830542583 3.4236001485 4.8724642966
 Br 4.5874570973 16.1226247225 -12.933821344
 Br 4.578916465 16.1225829949 -4.0258699118
 Br 4.5840177469 16.1212550847 4.8805309685
 Br -8.9384820692 -15.6219527647 -8.480358601
 Br -8.9399575554 -15.6227195167 0.4195278567
 Br -8.9330934899 -15.623340621 9.3398170544
 Br -8.9361433293 -2.9250797467 -8.491659571
 Br -8.938134715 -2.9252331169 0.4099350285
 Br -8.9312789989 -2.9258532279 9.3308861365
 Br -8.9332955848 9.7739578009 -8.4856788546
 Br -8.9354459966 9.772773424 0.414784035
 Br -8.9287065166 9.7728642322 9.3361729488
 Br -0.0110129352 -15.6217952467 -8.4796103065
 Br -0.0132114273 -15.6225887715 0.4198266388
 Br -0.0053893151 -15.6233615191 9.3391582639
 Br -0.0094457415 -2.9251578317 -8.4908645202
 Br -0.0120333526 -2.925403006 0.4099809499
 Br -0.0043697113 -2.9260955181 9.330031896
 Br -0.0059932033 9.7740178819 -8.485066742
 Br -0.0085467109 9.7728775178 0.4147708832
 Br -0.0012872015 9.7728886637 9.3354847772
 Br 8.9201911033 -15.6216778377 -8.4746531067
 Br 8.9172174362 -15.6223314113 0.4247450598
 Br 8.9254306033 -15.6230422277 9.3431742559
 Br 8.922522411 -2.9248553323 -8.4856976915
 Br 8.9192075903 -2.9251580972 0.4153977081
 Br 8.9271292882 -2.9257665544 9.3343542016
 Br 8.924919239 9.7740000421 -8.4800599321
 Br 8.92148062 9.7727156282 0.4195767214
 Br 8.9297594703 9.7728389311 9.3392078647
 Br -4.4565921867 -15.622030911 -4.7481339503
 Br -4.453764564 -15.6232351643 4.1562234047
 Br -4.4619530239 -15.6231311448 13.0659861332
 Br -4.4553880303 -2.9248933016 -4.7398688887
 Br -4.4523742343 -2.9257556989 4.1661765103
 Br -4.4606045594 -2.9256310825 13.076311419
 Br -4.4521994969 9.7736008345 -4.7459833734
 Br -4.4496024873 9.7724115831 4.1583514003
 Br -4.4570751303 9.7731057583 13.0689880074
 Br 4.4658635233 -15.6220673446 -4.7450402055
 Br 4.46943832 -15.623069016 4.1594174226
 Br 4.4627188183 -15.6229354663 13.0695251238
 Br 4.4672426895 -2.9249726189 -4.7367865388
 Br 4.4711463074 -2.9257895409 4.169217271
 Br 4.4647638972 -2.9256473259 13.0798959509
 Br 4.4702050016 9.7737850466 -4.7427773771
 Br 4.473533407 9.7723742984 4.1614393638
 Br 4.467661844 9.7732425166 13.0729013726
 Br 13.3963378749 -15.6219200901 -4.7487877256
 Br 13.3997620414 -15.6230856817 4.1557258151
 Br 13.3941824478 -15.6229993711 13.0656588226
 Br 13.3969306231 -2.9249781076 -4.7406257979
 Br 13.4006322728 -2.9256948404 4.1654071537
 Br 13.3953244092 -2.925466587 13.0760137049
 Br 13.4003405695 9.7738229015 -4.7466143921
 Br 13.4038615531 9.7725091904 4.157792978
 Br 13.3987345819 9.7731576834 13.0687741727
 Br -8.8023644666 -9.273844556 -9.2053278519
 Br -8.7956160239 -9.2739066935 -0.288588221
 Br -8.7989188425 -9.2746014971 8.6105159428
 Br -8.7995424371 3.4250193918 -9.2009333244
 Br -8.7933947378 3.4242254275 -0.2854031341
 Br -8.7962072652 3.4239625209 8.6148106866
 Br -8.7978805153 16.1226796493 -9.2113010386
    &END
    &KIND BR
      ELEMENT  Br
    &END
    &KIND CS
      ELEMENT  Cs
    &END
    &KIND PB
      ELEMENT  Pb
    &END
    &TOPOLOGY
      &CENTER_COORDINATES
        CENTER_POINT  0.0 0.0 0.0
      &END
      COORD_FILE_FORMAT  OFF
    &END
  &END
&END

&GLOBAL
  PRINT_LEVEL  low
  PROJECT  cp2k
  RUN_TYPE  MD
&END

&MOTION
  &MD
    &BAROSTAT
      PRESSURE  1.01
      TIMECON  500
    &END
    ENSEMBLE  NPT_F
    STEPS  10000
    TEMPERATURE  300.0
    &THERMOSTAT
      &CSVR
        TIMECON  500
      &END
      &PRINT
        &TEMPERATURE ON
          &EACH
            MD  10
          &END
          FILENAME
        &END
      &END
      TYPE  csvr
    &END
    TIMESTEP  2.5
  &END
  &PRINT
    &CELL ON
      &EACH
        MD  10
      &END
      FILENAME
    &END
    &FORCES ON
      &EACH
        MD  10
      &END
      FILENAME
    &END
    &TRAJECTORY ON
      &EACH
        MD  10
      &END
    &END
  &END
&END

