&FORCE_EVAL
  METHOD  FIST
  &MM
    &FORCEFIELD
      &CHARGE
        ATOM  C_1
        CHARGE  0.530308
      &END
      &CHARGE
        ATOM  Cd
        CHARGE  1.145014
      &END
      &CHARGE
        ATOM  O_1
        CHARGE  -0.551407
      &END
      &CHARGE
        ATOM  Se
        CHARGE  -1.145014
      &END
      DO_NONBONDED
      IGNORE_MISSING_CRITICAL_PARAMS
      &NONBONDED
        &LENNARD-JONES
          ATOMS  Cd Cd
          EPSILON  [kjmol] 0.310100
          SIGMA  [nm] 0.123400
        &END
        &LENNARD-JONES
          ATOMS  Cd O_1
          EPSILON  [kjmol] 2.008230
          SIGMA  [nm] 0.247100
        &END
        &LENNARD-JONES
          ATOMS  Cd Se
          EPSILON  [kjmol] 1.522500
          SIGMA  [nm] 0.296940
        &END
        &LENNARD-JONES
          ATOMS  Se O_1
          EPSILON  [kjmol] 1.573163
          SIGMA  [nm] 0.352600
        &END
        &LENNARD-JONES
          ATOMS  Se Se
          EPSILON  [kjmol] 0.426600
          SIGMA  [nm] 0.513281
        &END
      &END
      PARM_FILE_NAME  /nfs/home5/user/FOX/example/ligand.prm
      PARMTYPE  CHM
      SHIFT_CUTOFF  .TRUE.
      &SPLINE
        EMAX_SPLINE  10e10
      &END
    &END
    &POISSON
      &EWALD
        ALPHA  0.44
        EWALD_TYPE  spme
        GMAX  24
      &END
    &END
  &END
  &SUBSYS
    &CELL
      ABC  [angstrom] 50.0 50.0 50.0
      PERIODIC  NONE
    &END
    &COORD
 Cd -10.317 4.144 1.795
 Cd -7.771 3.369 6.037
 Cd -9.619 1.636 -1.379
 Cd -8.426 0.713 2.572
 Cd -5.888 -0.009 6.387
 Cd -7.619 -2.401 -0.68
 Cd -5.98 -3.196 2.952
 Cd -8.353 7.717 1.854
 Cd -5.759 6.52 5.739
 Cd -8.275 5.032 -1.41
 Cd -5.652 3.817 2.32
 Cd -3.462 3.249 6.714
 Cd -7.662 2.417 -4.419
 Cd -5.635 1.228 -0.868
 Cd -3.858 0.583 2.918
 Cd -1.293 -0.32 6.698
 Cd -5.62 -1.523 -4.145
 Cd -3.763 -3.058 -0.545
 Cd -1.771 -2.89 2.895
 Cd -5.775 11.114 1.784
 Cd -3.483 10.221 5.967
 Cd -6.358 8.852 -1.783
 Cd -3.802 7.604 2.354
 Cd -1.621 6.824 6.336
 Cd -6.001 6.161 -4.879
 Cd -3.612 5.251 -1.111
 Cd -1.277 4.007 2.737
 Cd 0.595 3.434 6.411
 Cd -5.788 3.896 -8.079
 Cd -3.441 2.386 -4.617
 Cd -1.459 1.285 -0.45
 Cd 0.746 0.495 2.971
 Cd 2.714 0.062 6.535
 Cd -3.647 -0.438 -7.502
 Cd -1.78 -1.582 -3.719
 Cd 0.584 -2.988 -0.487
 Cd 2.354 -2.953 2.704
 Cd -4.243 12.293 -1.498
 Cd -1.7 11.486 1.92
 Cd 0.475 9.984 5.488
 Cd -4.08 9.771 -4.726
 Cd -1.767 8.961 -1.352
 Cd 0.429 7.871 2.143
 Cd 2.522 6.644 6.131
 Cd -3.467 7.666 -8.009
 Cd -1.44 5.982 -4.611
 Cd 0.7 5.357 -1.106
 Cd 2.901 4.302 2.524
 Cd 4.882 3.298 6.396
 Cd -1.523 3.415 -7.689
 Cd 0.763 2.338 -4.215
 Cd 2.774 1.522 -0.66
 Cd 5.27 0.401 2.842
 Cd 0.488 -0.719 -7.198
 Cd 2.472 -1.49 -3.757
 Cd 4.662 -2.376 -0.515
 Cd 0.707 12.521 -1.634
 Cd 2.796 11.498 1.758
 Cd 0.711 9.501 -4.728
 Cd 3.05 9.278 -1.463
 Cd 5.108 7.821 2.208
 Cd 1.248 6.975 -7.741
 Cd 3.3 6.257 -4.404
 Cd 5.353 5.481 -0.988
 Cd 7.245 3.839 2.42
 Cd 2.804 3.377 -7.532
 Cd 5.017 2.647 -4.209
 Cd 6.909 2.152 -0.944
 Se -10.706 3.833 -0.732
 Se -8.125 3.265 3.362
 Se -6.094 2.307 7.773
 Se -7.917 0.08 -0.001
 Se -6.181 -0.65 3.844
 Se -6.072 -3.975 0.529
 Se -8.518 7.551 -0.735
 Se -6.098 6.538 3.102
 Se -3.887 5.839 7.317
 Se -8.173 4.95 -4.004
 Se -5.813 3.833 -0.326
 Se -3.634 3.077 3.794
 Se -1.297 2.079 7.693
 Se -5.61 1.05 -3.619
 Se -3.628 -0.179 0.346
 Se -1.532 -0.541 3.961
 Se -3.794 -3.342 -3.175
 Se -1.528 -4.116 0.697
 Se -6.49 11.505 -0.613
 Se -3.65 10.293 3.05
 Se -1.505 9.467 7.217
 Se -6.349 8.82 -4.442
 Se -4.005 7.897 -0.259
 Se -1.553 6.747 3.477
 Se 0.522 5.843 7.566
 Se -5.729 6.47 -7.6
 Se -3.701 4.901 -3.851
 Se -1.501 3.882 -0.008
 Se 0.994 3.058 3.768
 Se 2.961 2.336 7.671
 Se -3.735 2.323 -7.271
 Se -1.377 1.024 -3.383
 Se 0.811 0.026 0.473
 Se 3.1 -0.69 3.996
 Se -1.739 -1.833 -6.458
 Se 0.58 -3.069 -3.187
 Se 3.037 -4.038 0.499
 Se -1.619 11.644 -0.649
 Se 0.747 10.469 2.891
 Se -1.665 8.566 -3.987
 Se 0.603 7.97 -0.619
 Se 2.739 6.855 3.365
 Se -1.29 6.08 -7.422
 Se 0.901 4.978 -3.698
 Se 2.763 4.054 -0.025
 Se 4.964 2.883 3.75
 Se 0.595 2.006 -7.062
 Se 2.993 1.209 -3.369
 Se 5.147 0.358 0.272
 Se 3.077 11.819 -0.705
 Se 3.062 8.936 -4.158
 Se 4.99 8.045 -0.337
 Se 3.492 5.948 -7.127
 Se 5.509 5.164 -3.573
 Se 7.717 4.379 -0.02
 C 5.56 -2.817 -3.014
 H 5.943 -2.793 -4.068
 O 4.34 -2.485 -2.816
 O 6.297 -3.129 -2.059
 C 3.009 -1.89 -7.15
 H 3.982 -2.361 -7.241
 O 2.46 -1.347 -6.106
 O 2.365 -1.956 -8.235
 C 5.205 2.06 -7.558
 H 6.12 1.491 -7.748
 O 4.731 2.006 -6.395
 O 4.729 2.636 -8.569
 C 7.564 0.74 -3.2
 H 8.069 0.38 -4.085
 O 6.335 1.102 -3.253
 O 8.17 0.655 -2.1
 C 8.448 0.831 3.277
 H 9.434 0.444 3.342
 O 8.499 2.078 3.02
 O 7.43 0.096 3.405
 C -4.437 -4.577 4.726
 H -3.955 -5.238 5.449
 O -3.833 -4.213 3.658
 O -5.692 -4.389 4.887
 C 0.757 -4.745 4.177
 H 0.065 -5.251 4.807
 O 0.236 -3.746 3.591
 O 1.927 -5.04 4.049
 C 0.557 -1.986 8.111
 H 1.172 -2.75 8.649
 O -0.667 -1.949 8.458
 O 1.043 -1.402 7.087
 C -4.184 -1.91 7.311
 H -3.653 -2.873 7.656
 O -3.513 -1.055 6.691
 O -5.425 -1.817 7.546
 C -8.935 6.054 7.066
 H -9.667 6.769 7.536
 O -7.864 6.519 6.698
 O -9.351 4.84 6.929
 C -6.032 9.853 6.608
 H -7.053 9.512 6.841
 O -5.363 8.897 6.014
 O -5.547 10.971 6.726
 C -7.781 10.48 3.681
 H -8.562 10.43 4.451
 O -7.786 9.618 2.765
 O -6.874 11.366 3.735
 C -11.336 6.93 3.181
 H -12.236 7.468 3.518
 O -10.301 7.646 3.092
 O -11.537 5.702 2.765
 C -11.268 0.57 2.811
 H -12.342 0.452 3.075
 O -10.893 1.713 2.292
 O -10.415 -0.332 3.199
 C -6.133 -1.354 -7.689
 H -7.096 -1.888 -7.857
 O -5.663 -1.307 -6.495
 O -5.529 -0.836 -8.659
 C -8.784 -2.672 -3.223
 H -9.303 -2.928 -4.224
 O -7.532 -2.316 -3.29
 O -9.413 -2.916 -2.128
 C -10.386 0.76 -4.509
 H -11.183 0.286 -5.024
 O -9.61 1.46 -5.242
 O -10.449 0.617 -3.263
 C -7.966 2.436 -7.857
 H -8.841 1.753 -7.826
 O -7.459 2.78 -6.71
 O -7.466 2.738 -9.002
 C -3.053 10.519 -7.998
 H -2.798 11.566 -8.35
 O -3.288 10.346 -6.771
 O -2.974 9.65 -8.91
 C -3.309 12.928 -3.944
 H -3.038 13.232 -4.947
 O -3.444 11.7 -3.734
 O -3.523 13.781 -2.992
 C 0.17 12.907 -4.237
 H -0.086 13.065 -5.233
 O 0.349 11.659 -3.996
 O 0.355 13.836 -3.416
 C 0.677 9.929 -8.289
 H 0.575 10.765 -9.014
 O 0.57 9.992 -7.032
 O 1.128 8.882 -8.892
 C 7.258 6.891 3.989
 H 7.991 6.699 4.822
 O 6.351 7.804 4.118
 O 7.36 6.201 2.899
 C 4.992 11.068 3.422
 H 5.924 10.88 4.049
 O 4.704 10.128 2.561
 O 4.333 12.166 3.59
 C 2.774 10.037 7.261
 H 3.598 9.805 8.001
 O 2.547 9.119 6.324
 O 2.13 11.059 7.384
 C 5.674 5.878 7.022
 H 5.898 6.895 7.441
 O 4.502 5.662 6.55
 O 6.518 4.986 7.064
    &END
    &KIND C_1
      ELEMENT  C
    &END
    &KIND CD
      ELEMENT  Cd
    &END
    &KIND H_1
      ELEMENT  H
    &END
    &KIND O_1
      ELEMENT  O
    &END
    &KIND SE
      ELEMENT  Se
    &END
    &TOPOLOGY
      &CENTER_COORDINATES
        CENTER_POINT  0.0 0.0 0.0
      &END
      CONN_FILE_FORMAT  PSF
      CONN_FILE_NAME  /nfs/home5/user/FOX/example/mol.0.psf
      COORD_FILE_FORMAT  OFF
    &END
  &END
&END

&GLOBAL
  RUN_TYPE  MD
&END

&MOTION
  &MD
    ENSEMBLE  NVT
    STEPS  5000
    TEMPERATURE  300.0
    &THERMOSTAT
      &CSVR
        TIMECON  1250
      &END
      TYPE  CSVR
    &END
    TIME_START_VAL  5000
    TIMESTEP  1.0
  &END
&END
